5262
Lattice="50.0 0.0 0.0 0.0 50.0 0.0 0.0 0.0 100.0" Properties=species:S:1:pos:R:3:vel:R:3:group:I:1 pbc="T T F"
O 22.0574 26.6236 21.3925 0.0 0.0 0.0 2
Ga 44.3672 40.0923 11.42444 0.0 0.0 0.0 0
O 39.6287 2.17761 28.5361 0.0 0.0 0.0 1
Ga 29.5949 13.1155 20.0729 0.0 0.0 0.0 1
O 42.0032 6.22095 11.98315 0.0 0.0 0.0 0
Ga 37.1865 49.3785 34.3591 0.0 0.0 0.0 2
O 49.5384 3.60317 25.9983 0.0 0.0 0.0 1
O 7.49015 19.3855 19.87248 0.0 0.0 0.0 0
O 1.28829 35.286 14.87328 0.0 0.0 0.0 0
O 13.7963 19.0456 24.892 0.0 0.0 0.0 1
Ga 49.1484 12.8591 29.6043 0.0 0.0 0.0 1
O 26.3557 31.8142 27.6386 0.0 0.0 0.0 2
O 21.4429 30.9762 30.8421 0.0 0.0 0.0 2
Ga 38.2634 34.9673 12.91458 0.0 0.0 0.0 0
Ga 23.7262 18.6689 26.1203 0.0 0.0 0.0 1
Ga 3.39824 32.2671 21.0342 0.0 0.0 0.0 2
O 13.7365 6.45149 24.0648 0.0 0.0 0.0 1
O 16.212 41.5397 16.19248 0.0 0.0 0.0 0
Ga 17.3667 42.8279 15.39001 0.0 0.0 0.0 0
Ga 33.9118 21.1554 12.11349 0.0 0.0 0.0 0
O 33.4651 34.5385 30.2154 0.0 0.0 0.0 2
O 47.3411 27.4345 26.5821 0.0 0.0 0.0 2
Ga 37.5795 25.5123 14.78664 0.0 0.0 0.0 0
O 40.3433 0.0218801 30.4804 0.0 0.0 0.0 1
Ga 0.947228 2.59562 34.7348 0.0 0.0 0.0 1
O 45.7827 0.24519 21.1135 0.0 0.0 0.0 1
Ga 9.01672 12.6132 25.6092 0.0 0.0 0.0 1
Ga 42.2961 30.9954 21.178 0.0 0.0 0.0 2
O 24.9017 41.753 22.7353 0.0 0.0 0.0 2
O 45.004 8.95734 30.0873 0.0 0.0 0.0 1
Ga 0.00534308 34.3369 21.4813 0.0 0.0 0.0 2
O 23.4571 13.4977 18.26675 0.0 0.0 0.0 0
O 14.4039 9.0578 18.52974 0.0 0.0 0.0 0
Ga 6.26818 13.9404 10.567957 0.0 0.0 0.0 0
O 3.33468 35.1217 23.8662 0.0 0.0 0.0 2
Ga 41.1304 13.9903 33.1036 0.0 0.0 0.0 1
O 5.48311 22.7203 15.43264 0.0 0.0 0.0 0
O 3.76703 3.97729 15.6479 0.0 0.0 0.0 0
Ga 48.4302 48.7604 21.7904 0.0 0.0 0.0 2
O 5.61529 44.102 19.16797 0.0 0.0 0.0 0
O 32.4499 24.7547 13.13387 0.0 0.0 0.0 0
O 9.22147 37.5175 20.5093 0.0 0.0 0.0 2
Ga 49.7622 15.1649 22.759 0.0 0.0 0.0 1
O 10.014 46.6699 25.419 0.0 0.0 0.0 2
O 46.8279 21.6895 21.3655 0.0 0.0 0.0 1
O 15.5542 37.6648 11.27201 0.0 0.0 0.0 0
O 46.151 11.2087 20.896 0.0 0.0 0.0 1
Ga 18.0982 48.8853 12.77572 0.0 0.0 0.0 0
O 7.35064 36.3602 23.1312 0.0 0.0 0.0 2
Ga 43.0327 21.756 14.14128 0.0 0.0 0.0 0
O 8.62337 38.7136 23.7805 0.0 0.0 0.0 2
Ga 33.7234 18.8917 29.496 0.0 0.0 0.0 1
O 16.0007 46.2052 15.1656 0.0 0.0 0.0 0
O 7.17488 29.5793 34.9361 0.0 0.0 0.0 2
Ga 13.3005 26.876 13.01328 0.0 0.0 0.0 0
O 49.422 36.7011 23.7822 0.0 0.0 0.0 2
O 31.4309 48.2496 24.8414 0.0 0.0 0.0 2
O 8.20025 39.1012 28.2172 0.0 0.0 0.0 2
O 22.1132 41.5866 12.87873 0.0 0.0 0.0 0
Ga 1.61166 15.0678 12.67018 0.0 0.0 0.0 0
O 5.94293 8.54946 24.691 0.0 0.0 0.0 1
Ga 41.8232 27.4517 12.41688 0.0 0.0 0.0 0
Ga 19.8217 48.7135 30.983 0.0 0.0 0.0 2
Ga 44.6586 49.6283 25.5185 0.0 0.0 0.0 2
O 12.9643 21.3981 14.35647 0.0 0.0 0.0 0
O 35.2166 13.4909 22.1561 0.0 0.0 0.0 1
Ga 8.0541 41.7788 33.9592 0.0 0.0 0.0 2
O 29.2438 17.2497 30.2783 0.0 0.0 0.0 1
O 1.3501 21.1703 27.7944 0.0 0.0 0.0 1
O 7.39786 37.278 29.6737 0.0 0.0 0.0 2
Ga 10.8015 25.7394 23.4833 0.0 0.0 0.0 2
O 43.6586 29.5805 20.9363 0.0 0.0 0.0 2
O 26.0478 49.1305 30.9874 0.0 0.0 0.0 2
Ga 47.1498 13.4674 23.6856 0.0 0.0 0.0 1
O 38.4902 39.328 14.09483 0.0 0.0 0.0 0
Ga 27.9213 8.84564 15.85144 0.0 0.0 0.0 0
Ga 17.4937 27.4029 26.5318 0.0 0.0 0.0 2
O 11.8508 32.1232 13.89622 0.0 0.0 0.0 0
Ga 12.6415 48.6749 10.0364841 0.0 0.0 0.0 0
Ga 22.3642 46.8582 29.8806 0.0 0.0 0.0 2
Ga 45.4076 18.8737 17.91377 0.0 0.0 0.0 0
O 19.1888 42.2503 15.54838 0.0 0.0 0.0 0
O 23.0941 13.2804 31.4445 0.0 0.0 0.0 1
Ga 34.1657 14.5501 20.9669 0.0 0.0 0.0 1
O 9.60597 43.5478 30.1271 0.0 0.0 0.0 2
Ga 37.8627 3.29269 25.3355 0.0 0.0 0.0 1
Ga 12.9464 41.7996 21.149 0.0 0.0 0.0 2
Ga 5.2212 21.8261 25.0724 0.0 0.0 0.0 1
O 33.6361 40.5378 12.79323 0.0 0.0 0.0 0
O 20.093 30.4512 11.48295 0.0 0.0 0.0 0
Ga 5.25509 32.7257 10.580079 0.0 0.0 0.0 0
O 0.812129 35.5457 33.73 0.0 0.0 0.0 2
O 18.3792 36.1526 12.00204 0.0 0.0 0.0 0
Ga 33.229 24.4078 11.22447 0.0 0.0 0.0 0
O 11.0341 36.2068 18.83892 0.0 0.0 0.0 0
O 31.5384 2.42664 19.47885 0.0 0.0 0.0 0
Ga 43.524 33.0749 18.62645 0.0 0.0 0.0 0
Ga 48.0255 21.487 17.7259 0.0 0.0 0.0 0
O 14.7062 28.0864 32.6778 0.0 0.0 0.0 2
Ga 17.2835 16.866 31.4562 0.0 0.0 0.0 1
Ga 11.6801 46.5336 18.47536 0.0 0.0 0.0 0
O 0.686501 29.6382 17.18782 0.0 0.0 0.0 0
Ga 38.6388 46.3947 33.449 0.0 0.0 0.0 2
O 5.10366 21.3643 31.2425 0.0 0.0 0.0 1
Ga 38.4376 18.5618 32.5169 0.0 0.0 0.0 1
Ga 19.4615 2.88817 30.6057 0.0 0.0 0.0 1
O 33.4328 19.7729 25.8229 0.0 0.0 0.0 1
Ga 31.7752 33.6743 18.71644 0.0 0.0 0.0 0
Ga 0.408017 18.6769 17.58416 0.0 0.0 0.0 0
Ga 19.3529 47.1002 18.55988 0.0 0.0 0.0 0
O 42.1781 15.5519 25.564 0.0 0.0 0.0 1
O 9.31098 44.4728 10.200458 0.0 0.0 0.0 0
Ga 24.4227 46.2644 32.0111 0.0 0.0 0.0 2
O 47.8307 17.6152 24.7636 0.0 0.0 0.0 1
O 12.687 20.8533 27.9981 0.0 0.0 0.0 1
O 46.6978 17.8185 17.13498 0.0 0.0 0.0 0
Ga 12.0515 27.5835 17.89897 0.0 0.0 0.0 0
O 31.102 33.3094 30.689 0.0 0.0 0.0 2
Ga 21.0534 36.2344 15.41097 0.0 0.0 0.0 0
O 43.902 19.0556 34.3353 0.0 0.0 0.0 1
O 27.8391 28.9468 32.6584 0.0 0.0 0.0 2
Ga 12.4028 10.5577 24.2997 0.0 0.0 0.0 1
O 31.0166 7.56278 22.098 0.0 0.0 0.0 1
Ga 11.6911 9.40368 12.25908 0.0 0.0 0.0 0
O 21.2583 13.6612 10.904687 0.0 0.0 0.0 0
O 48.0307 46.7927 34.5797 0.0 0.0 0.0 2
Ga 43.3814 43.8371 22.1753 0.0 0.0 0.0 2
O 3.74592 2.55283 24.658 0.0 0.0 0.0 1
Ga 42.9354 18.6481 15.64442 0.0 0.0 0.0 0
O 47.1449 22.4822 16.21124 0.0 0.0 0.0 0
Ga 40.335 44.4926 30.1058 0.0 0.0 0.0 2
O 42.0131 46.8393 22.3828 0.0 0.0 0.0 2
Ga 47.6247 5.66175 19.97531 0.0 0.0 0.0 0
O 26.0722 27.2659 30.3914 0.0 0.0 0.0 2
O 39.3891 40.8498 16.49313 0.0 0.0 0.0 0
Ga 49.7998 36.9155 25.5779 0.0 0.0 0.0 2
O 9.66388 5.72118 20.003 0.0 0.0 0.0 0
O 11.3215 16.943 10.781074 0.0 0.0 0.0 0
O 7.82277 34.4675 29.4402 0.0 0.0 0.0 2
O 13.549 22.0735 30.3389 0.0 0.0 0.0 1
O 47.25 7.53389 30.8565 0.0 0.0 0.0 1
Ga 20.6506 40.3046 28.6875 0.0 0.0 0.0 2
O 34.8485 2.20983 30.9459 0.0 0.0 0.0 1
Ga 4.7364 27.3851 15.6169 0.0 0.0 0.0 0
O 1.69133 21.7101 14.02806 0.0 0.0 0.0 0
Ga 46.7115 5.85742 25.8412 0.0 0.0 0.0 1
Ga 40.9966 2.32864 22.2832 0.0 0.0 0.0 1
O 26.658 22.008 21.935 0.0 0.0 0.0 1
O 41.0708 5.6848 17.34411 0.0 0.0 0.0 0
O 28.2636 7.19292 24.6095 0.0 0.0 0.0 1
O 42.7786 48.6478 28.872 0.0 0.0 0.0 2
Ga 29.0266 8.15891 20.9653 0.0 0.0 0.0 1
O 34.2444 10.0338 27.8058 0.0 0.0 0.0 1
Ga 47.947 49.5168 25.2783 0.0 0.0 0.0 2
Ga 47.8248 18.8759 15.91023 0.0 0.0 0.0 0
O 37.4488 32.3301 27.4044 0.0 0.0 0.0 2
Ga 23.3595 6.09369 24.6286 0.0 0.0 0.0 1
O 31.6238 7.64323 34.9381 0.0 0.0 0.0 1
Ga 48.294 41.0759 11.19833 0.0 0.0 0.0 0
Ga 21.6444 42.7926 21.027 0.0 0.0 0.0 2
O 27.6148 40.5626 15.0318 0.0 0.0 0.0 0
Ga 0.0749282 15.3482 16.62251 0.0 0.0 0.0 0
O 23.7335 25.9132 31.1061 0.0 0.0 0.0 2
O 19.6994 21.8063 22.8952 0.0 0.0 0.0 1
O 40.4624 46.4233 16.99644 0.0 0.0 0.0 0
O 40.3493 7.34571 28.1861 0.0 0.0 0.0 1
O 6.46033 32.9587 27.1201 0.0 0.0 0.0 2
O 25.318 27.7432 11.13223 0.0 0.0 0.0 0
Ga 30.4224 25.888 26.5889 0.0 0.0 0.0 2
O 45.9161 26.1305 28.996 0.0 0.0 0.0 2
O 6.79809 29.3419 28.7889 0.0 0.0 0.0 2
O 8.18606 38.2843 32.2396 0.0 0.0 0.0 2
O 25.3052 21.9579 28.8689 0.0 0.0 0.0 1
O 24.4465 24.3448 21.1756 0.0 0.0 0.0 1
O 28.9582 25.3361 27.5718 0.0 0.0 0.0 2
Ga 16.7391 12.189 20.2848 0.0 0.0 0.0 1
Ga 30.9985 34.2964 32.257 0.0 0.0 0.0 2
Ga 0.409907 0.716595 32.5129 0.0 0.0 0.0 1
O 37.6705 25.2585 10.259848 0.0 0.0 0.0 0
Ga 26.7383 18.3849 27.4908 0.0 0.0 0.0 1
O 13.7557 17.4016 31.8831 0.0 0.0 0.0 1
Ga 4.683 33.8656 13.45232 0.0 0.0 0.0 0
O 20.8312 43.8944 13.61623 0.0 0.0 0.0 0
Ga 13.6931 3.38326 13.16385 0.0 0.0 0.0 0
O 5.06689 47.4391 23.7394 0.0 0.0 0.0 2
O 42.3903 47.469 19.13412 0.0 0.0 0.0 0
Ga 32.9096 7.85724 31.0341 0.0 0.0 0.0 1
O 31.1273 14.0127 34.1539 0.0 0.0 0.0 1
Ga 27.8241 25.7141 18.59913 0.0 0.0 0.0 0
Ga 46.3382 12.8003 10.148307 0.0 0.0 0.0 0
O 39.2141 22.1084 23.3975 0.0 0.0 0.0 1
Ga 33.8251 38.8664 13.94744 0.0 0.0 0.0 0
Ga 25.5646 21.0387 16.81996 0.0 0.0 0.0 0
Ga 23.7993 38.3254 24.3637 0.0 0.0 0.0 2
O 19.1918 39.6446 24.0216 0.0 0.0 0.0 2
Ga 44.7692 10.1378 11.56903 0.0 0.0 0.0 0
O 48.9488 35.0177 31.0194 0.0 0.0 0.0 2
O 12.6194 46.7413 32.2785 0.0 0.0 0.0 2
O 6.201 3.5723 24.5278 0.0 0.0 0.0 1
Ga 28.3537 23.7374 29.0503 0.0 0.0 0.0 1
O 16.2422 18.3425 10.528663 0.0 0.0 0.0 0
O 41.3674 12.0853 20.8532 0.0 0.0 0.0 1
Ga 20.8658 22.9628 23.6184 0.0 0.0 0.0 1
Ga 6.18156 1.50279 10.382504 0.0 0.0 0.0 0
O 36.6713 23.385 23.6017 0.0 0.0 0.0 1
Ga 8.7092 26.6406 27.4164 0.0 0.0 0.0 2
O 20.6421 9.54147 13.22844 0.0 0.0 0.0 0
Ga 44.1169 13.8942 32.9945 0.0 0.0 0.0 1
O 25.996 13.3269 32.7837 0.0 0.0 0.0 1
Ga 17.6305 9.48762 19.05233 0.0 0.0 0.0 0
O 28.134 29.8067 26.4509 0.0 0.0 0.0 2
O 5.55608 20.8144 10.309299 0.0 0.0 0.0 0
Ga 30.3736 7.01452 28.8663 0.0 0.0 0.0 1
O 31.4583 35.2329 12.76095 0.0 0.0 0.0 0
O 14.9562 10.3544 34.9408 0.0 0.0 0.0 1
Ga 40.556 16.8788 17.23748 0.0 0.0 0.0 0
O 45.1746 31.5145 33.6828 0.0 0.0 0.0 2
Ga 14.0689 47.1655 12.25444 0.0 0.0 0.0 0
O 6.95679 8.50429 32.8793 0.0 0.0 0.0 1
Ga 3.09337 19.5852 18.97138 0.0 0.0 0.0 0
O 12.4578 0.458029 10.226927 0.0 0.0 0.0 0
Ga 7.99254 4.73393 14.1154 0.0 0.0 0.0 0
O 27.9706 37.2169 30.7018 0.0 0.0 0.0 2
O 44.338 22.6945 27.8697 0.0 0.0 0.0 1
O 45.9578 17.2412 34.604 0.0 0.0 0.0 1
O 9.94501 48.0448 22.5938 0.0 0.0 0.0 2
O 8.81966 7.78813 28.2094 0.0 0.0 0.0 1
Ga 46.9842 29.0774 14.67278 0.0 0.0 0.0 0
O 2.7662 33.3341 34.3921 0.0 0.0 0.0 2
Ga 40.3879 15.9148 25.4585 0.0 0.0 0.0 1
Ga 20.2868 44.2622 31.3521 0.0 0.0 0.0 2
O 16.9776 16.0663 27.8973 0.0 0.0 0.0 1
Ga 0.0564638 29.1405 13.59518 0.0 0.0 0.0 0
O 20.1697 29.076 22.1184 0.0 0.0 0.0 2
Ga 2.17728 39.1456 32.3512 0.0 0.0 0.0 2
Ga 24.2665 37.3837 15.41533 0.0 0.0 0.0 0
O 22.1963 7.98078 18.10662 0.0 0.0 0.0 0
Ga 11.0505 36.4959 20.9533 0.0 0.0 0.0 2
O 28.6108 0.379425 29.4092 0.0 0.0 0.0 1
O 42.7668 17.9363 24.2275 0.0 0.0 0.0 1
Ga 47.9793 14.6797 31.7935 0.0 0.0 0.0 1
Ga 33.2835 25.1658 25.7071 0.0 0.0 0.0 2
Ga 10.5786 38.4315 23.272 0.0 0.0 0.0 2
O 1.66263 42.2061 30.9783 0.0 0.0 0.0 2
O 1.13654 36.0884 26.6051 0.0 0.0 0.0 2
Ga 40.2868 42.4024 12.34001 0.0 0.0 0.0 0
Ga 1.85157 48.8845 30.3291 0.0 0.0 0.0 2
O 3.41001 48.0819 29.8525 0.0 0.0 0.0 2
O 28.6391 20.1655 23.8501 0.0 0.0 0.0 1
Ga 30.762 28.5266 28.5843 0.0 0.0 0.0 2
O 23.8999 11.7294 20.0957 0.0 0.0 0.0 1
Ga 23.0415 23.3076 15.75411 0.0 0.0 0.0 0
O 17.1088 41.4725 20.7075 0.0 0.0 0.0 2
O 20.4474 49.924 32.5241 0.0 0.0 0.0 2
Ga 24.7251 31.6852 28.7709 0.0 0.0 0.0 2
O 7.4799 33.1493 19.75475 0.0 0.0 0.0 0
Ga 0.611214 25.474 28.2598 0.0 0.0 0.0 2
O 36.3512 12.1965 16.95378 0.0 0.0 0.0 0
Ga 18.8772 22.9132 11.44871 0.0 0.0 0.0 0
O 47.4355 26.0476 23.9398 0.0 0.0 0.0 2
Ga 7.18303 47.4425 12.50424 0.0 0.0 0.0 0
O 41.4084 22.6336 28.182 0.0 0.0 0.0 1
O 42.7157 8.17432 26.093 0.0 0.0 0.0 1
O 49.5164 49.6685 24.2198 0.0 0.0 0.0 2
O 21.9204 5.4729 32.7554 0.0 0.0 0.0 1
O 22.9877 39.3611 32.7608 0.0 0.0 0.0 2
Ga 18.5547 1.60484 26.8178 0.0 0.0 0.0 1
O 17.5228 34.257 16.56652 0.0 0.0 0.0 0
Ga 45.0017 10.6801 31.1124 0.0 0.0 0.0 1
Ga 44.6836 44.1823 16.49115 0.0 0.0 0.0 0
O 35.0344 14.894 17.21999 0.0 0.0 0.0 0
Ga 43.3916 28.924 32.4817 0.0 0.0 0.0 2
O 47.4737 12.5743 15.85185 0.0 0.0 0.0 0
O 36.8967 42.2081 20.3254 0.0 0.0 0.0 2
O 23.737 10.7187 17.71737 0.0 0.0 0.0 0
Ga 33.5906 16.0962 31.0577 0.0 0.0 0.0 1
O 10.1895 10.2649 20.7964 0.0 0.0 0.0 1
O 24.3226 44.385 23.7462 0.0 0.0 0.0 2
O 10.2678 49.9192 17.12198 0.0 0.0 0.0 0
O 35.3664 18.1452 20.8068 0.0 0.0 0.0 1
Ga 27.1161 43.9659 28.5178 0.0 0.0 0.0 2
O 18.6046 12.379 19.95784 0.0 0.0 0.0 0
O 41.0047 11.6953 11.47389 0.0 0.0 0.0 0
O 37.3882 0.255646 23.0307 0.0 0.0 0.0 1
Ga 3.40414 43.2127 31.1549 0.0 0.0 0.0 2
O 47.7868 48.706 13.16861 0.0 0.0 0.0 0
Ga 10.9907 37.8389 10.187847 0.0 0.0 0.0 0
O 34.7951 43.3157 22.0843 0.0 0.0 0.0 2
Ga 16.6367 41.4831 18.84296 0.0 0.0 0.0 0
O 17.1619 18.1742 13.53689 0.0 0.0 0.0 0
Ga 27.0588 48.2517 32.4452 0.0 0.0 0.0 2
Ga 36.295 27.8914 26.3997 0.0 0.0 0.0 2
O 26.1325 8.25028 22.8079 0.0 0.0 0.0 1
O 9.46743 47.5728 32.6023 0.0 0.0 0.0 2
Ga 19.6464 32.7648 23.2156 0.0 0.0 0.0 2
Ga 18.6244 30.8939 14.7497 0.0 0.0 0.0 0
O 28.7162 10.6924 26.8468 0.0 0.0 0.0 1
Ga 9.87907 8.95536 30.8963 0.0 0.0 0.0 1
O 21.0835 6.5566 15.99783 0.0 0.0 0.0 0
O 18.4271 21.3326 20.0929 0.0 0.0 0.0 1
Ga 36.421 38.9381 22.8075 0.0 0.0 0.0 2
Ga 8.56193 11.1915 28.9136 0.0 0.0 0.0 1
O 24.1331 8.11525 16.31658 0.0 0.0 0.0 0
O 12.4426 49.8681 22.0565 0.0 0.0 0.0 2
Ga 38.138 23.6142 29.545 0.0 0.0 0.0 1
O 47.191 2.44479 27.6519 0.0 0.0 0.0 1
O 42.9093 13.0253 17.29975 0.0 0.0 0.0 0
O 39.3534 42.7355 13.99678 0.0 0.0 0.0 0
O 42.8639 30.7942 32.6898 0.0 0.0 0.0 2
Ga 31.9549 19.9484 32.6321 0.0 0.0 0.0 1
O 20.6242 10.5542 25.0419 0.0 0.0 0.0 1
O 11.8641 5.00333 21.5794 0.0 0.0 0.0 1
Ga 24.4104 30.0707 17.6904 0.0 0.0 0.0 0
O 43.8666 22.8803 18.3052 0.0 0.0 0.0 0
O 10.6344 20.1482 12.6109 0.0 0.0 0.0 0
Ga 21.1693 20.1988 24.8686 0.0 0.0 0.0 1
O 1.41508 38.039 15.57159 0.0 0.0 0.0 0
Ga 25.3216 35.8561 25.2276 0.0 0.0 0.0 2
O 0.143012 37.8165 10.734111 0.0 0.0 0.0 0
O 8.47245 40.0444 16.64958 0.0 0.0 0.0 0
O 43.1173 24.9391 30.1851 0.0 0.0 0.0 1
O 48.7188 30.2202 22.7203 0.0 0.0 0.0 2
O 32.7738 40.2761 17.44462 0.0 0.0 0.0 0
Ga 8.87965 30.6112 34.2108 0.0 0.0 0.0 2
O 8.48228 12.4789 27.4121 0.0 0.0 0.0 1
Ga 44.0563 2.97587 34.7932 0.0 0.0 0.0 1
O 41.5537 17.8837 20.5188 0.0 0.0 0.0 1
Ga 38.0148 18.1074 25.8877 0.0 0.0 0.0 1
O 28.3733 32.6884 25.8801 0.0 0.0 0.0 2
Ga 18.2699 4.83016 24.9962 0.0 0.0 0.0 1
O 20.64 12.2972 29.9267 0.0 0.0 0.0 1
O 10.4046 41.907 17.97343 0.0 0.0 0.0 0
O 49.0817 32.3768 30.1182 0.0 0.0 0.0 2
Ga 26.9283 15.0275 21.579 0.0 0.0 0.0 1
Ga 27.0108 45.0236 14.16157 0.0 0.0 0.0 0
Ga 29.5166 8.86126 31.2526 0.0 0.0 0.0 1
O 8.60057 48.4523 11.49273 0.0 0.0 0.0 0
O 24.6858 41.368 33.4303 0.0 0.0 0.0 2
Ga 39.7481 0.0844908 16.62719 0.0 0.0 0.0 0
O 2.75853 27.7381 16.66343 0.0 0.0 0.0 0
Ga 44.5664 41.7261 26.2051 0.0 0.0 0.0 2
O 16.6562 32.8657 33.5791 0.0 0.0 0.0 2
Ga 41.2687 33.3215 16.2698 0.0 0.0 0.0 0
O 40.0571 13.0394 18.55875 0.0 0.0 0.0 0
Ga 6.51116 22.9015 13.87934 0.0 0.0 0.0 0
O 4.05751 27.9275 22.2789 0.0 0.0 0.0 2
Ga 18.5437 2.55615 23.1079 0.0 0.0 0.0 1
Ga 4.19101 13.4486 26.2143 0.0 0.0 0.0 1
O 21.4873 31.9148 23.2792 0.0 0.0 0.0 2
O 4.98006 15.2194 26.316 0.0 0.0 0.0 1
Ga 4.03326 25.2534 13.91863 0.0 0.0 0.0 0
Ga 31.2516 13.2992 15.40138 0.0 0.0 0.0 0
O 15.1122 23.293 32.4567 0.0 0.0 0.0 1
Ga 24.5898 43.6043 15.82212 0.0 0.0 0.0 0
Ga 15.0404 21.8994 18.72762 0.0 0.0 0.0 0
O 32.9226 11.9232 29.5411 0.0 0.0 0.0 1
O 33.1415 8.71365 10.705214 0.0 0.0 0.0 0
O 3.84075 17.3745 16.34939 0.0 0.0 0.0 0
O 9.69407 38.5011 11.56952 0.0 0.0 0.0 0
Ga 3.95951 37.1354 24.0886 0.0 0.0 0.0 2
O 40.6782 4.5691 29.0616 0.0 0.0 0.0 1
Ga 1.68831 20.2752 12.94199 0.0 0.0 0.0 0
Ga 27.1484 9.82699 23.5082 0.0 0.0 0.0 1
O 39.3306 36.045 10.754286 0.0 0.0 0.0 0
O 25.9971 14.6707 26.5159 0.0 0.0 0.0 1
O 38.4181 33.4025 32.9272 0.0 0.0 0.0 2
O 35.2018 8.67933 25.218 0.0 0.0 0.0 1
Ga 20.7303 1.9103 20.7786 0.0 0.0 0.0 1
O 24.1875 29.3022 15.89337 0.0 0.0 0.0 0
O 9.18878 27.09 31.5888 0.0 0.0 0.0 2
O 3.51067 41.1177 14.45876 0.0 0.0 0.0 0
O 23.1848 48.12 10.951805 0.0 0.0 0.0 0
O 46.4939 8.25455 33.8136 0.0 0.0 0.0 1
Ga 8.61237 40.6228 23.9483 0.0 0.0 0.0 2
O 31.6498 40.7361 20.2734 0.0 0.0 0.0 2
Ga 38.0798 44.766 24.8054 0.0 0.0 0.0 2
O 34.9728 35.1085 13.53972 0.0 0.0 0.0 0
Ga 8.62704 8.69947 11.44065 0.0 0.0 0.0 0
Ga 8.27205 18.6844 18.3715 0.0 0.0 0.0 0
O 30.2552 1.03408 21.1095 0.0 0.0 0.0 1
O 16.9578 6.28094 11.61052 0.0 0.0 0.0 0
Ga 48.6871 26.5144 14.52086 0.0 0.0 0.0 0
O 48.6526 42.4037 18.59153 0.0 0.0 0.0 0
O 0.840223 38.7924 31.0261 0.0 0.0 0.0 2
O 12.6209 33.958 16.70408 0.0 0.0 0.0 0
O 28.1212 22.0793 30.416 0.0 0.0 0.0 1
Ga 39.5164 41.5838 29.637 0.0 0.0 0.0 2
O 8.91677 3.0104 13.66766 0.0 0.0 0.0 0
Ga 3.08407 47.0632 16.13406 0.0 0.0 0.0 0
O 41.4138 9.37521 23.709 0.0 0.0 0.0 1
O 42.7819 46.0415 28.1158 0.0 0.0 0.0 2
Ga 28.7413 19.0998 30.1087 0.0 0.0 0.0 1
O 8.31698 27.0768 29.1651 0.0 0.0 0.0 2
Ga 2.75522 11.7121 21.0199 0.0 0.0 0.0 1
O 46.6595 25.4029 21.0055 0.0 0.0 0.0 2
O 32.228 7.67279 28.9296 0.0 0.0 0.0 1
Ga 36.2398 22.6735 13.86246 0.0 0.0 0.0 0
O 24.0003 41.3304 11.15181 0.0 0.0 0.0 0
O 37.2802 41.7625 30.3769 0.0 0.0 0.0 2
Ga 49.5997 12.4754 32.9759 0.0 0.0 0.0 1
O 16.1716 10.5758 19.52705 0.0 0.0 0.0 0
O 32.7256 49.886 23.065 0.0 0.0 0.0 2
Ga 3.31484 20.7979 27.7346 0.0 0.0 0.0 1
O 18.4212 5.51649 16.37373 0.0 0.0 0.0 0
O 48.1764 43.8243 14.57563 0.0 0.0 0.0 0
Ga 37.2376 32.6947 20.5404 0.0 0.0 0.0 2
O 35.763 49.3367 10.852691 0.0 0.0 0.0 0
Ga 9.90465 40.2325 12.25941 0.0 0.0 0.0 0
Ga 24.5586 15.8446 26.128 0.0 0.0 0.0 1
O 22.0144 4.32371 27.8485 0.0 0.0 0.0 1
Ga 10.4943 29.3431 15.89639 0.0 0.0 0.0 0
O 49.9272 30.9255 13.70133 0.0 0.0 0.0 0
O 41.8428 16.4999 12.95398 0.0 0.0 0.0 0
O 41.4149 14.7166 28.2971 0.0 0.0 0.0 1
O 18.4674 46.8705 16.61996 0.0 0.0 0.0 0
Ga 30.3354 25.7022 30.1549 0.0 0.0 0.0 2
O 23.5454 17.2167 17.8537 0.0 0.0 0.0 0
Ga 22.508 24.8417 21.4641 0.0 0.0 0.0 1
O 11.6369 24.344 20.1378 0.0 0.0 0.0 1
O 4.21337 45.4748 17.05349 0.0 0.0 0.0 0
Ga 38.8196 10.3493 26.5959 0.0 0.0 0.0 1
O 37.7056 5.49415 21.5357 0.0 0.0 0.0 1
O 45.1261 28.8487 15.33807 0.0 0.0 0.0 0
Ga 8.61711 42.097 17.59209 0.0 0.0 0.0 0
O 46.5234 49.7758 15.83379 0.0 0.0 0.0 0
Ga 12.9868 11.761 11.29668 0.0 0.0 0.0 0
O 25.0908 6.41775 13.17234 0.0 0.0 0.0 0
O 2.06991 28.4357 19.52001 0.0 0.0 0.0 0
O 7.17662 27.2492 21.8283 0.0 0.0 0.0 2
O 35.5132 15.2071 27.8612 0.0 0.0 0.0 1
Ga 23.1033 3.34696 26.6379 0.0 0.0 0.0 1
Ga 48.0428 10.7725 12.14605 0.0 0.0 0.0 0
O 49.2564 40.2606 20.7956 0.0 0.0 0.0 2
O 17.7463 7.66577 18.35919 0.0 0.0 0.0 0
Ga 27.7447 3.48453 26.6392 0.0 0.0 0.0 1
Ga 44.0546 5.59705 23.1909 0.0 0.0 0.0 1
O 40.3607 44.5667 28.2226 0.0 0.0 0.0 2
O 27.6707 1.9301 16.71597 0.0 0.0 0.0 0
O 14.5436 23.4662 27.8236 0.0 0.0 0.0 1
Ga 1.26133 41.5764 23.4299 0.0 0.0 0.0 2
O 44.9186 6.06704 26.1179 0.0 0.0 0.0 1
O 20.1707 38.7201 27.7328 0.0 0.0 0.0 2
O 0.702105 13.9431 29.6749 0.0 0.0 0.0 1
Ga 31.7586 23.4117 28.177 0.0 0.0 0.0 1
Ga 49.3375 18.3629 23.8181 0.0 0.0 0.0 1
O 38.0076 49.5299 16.74601 0.0 0.0 0.0 0
Ga 47.1593 17.9652 32.3186 0.0 0.0 0.0 1
Ga 13.9172 16.6025 19.28419 0.0 0.0 0.0 0
O 46.3738 19.7941 15.06852 0.0 0.0 0.0 0
Ga 5.65595 44.6595 12.70635 0.0 0.0 0.0 0
Ga 7.9993 22.7028 28.5206 0.0 0.0 0.0 1
Ga 2.03787 35.2111 13.19354 0.0 0.0 0.0 0
O 43.6244 43.9788 10.445784 0.0 0.0 0.0 0
O 15.6457 13.3709 24.1818 0.0 0.0 0.0 1
Ga 32.888 36.8485 18.81191 0.0 0.0 0.0 0
O 7.64055 36.8662 26.1133 0.0 0.0 0.0 2
O 32.6121 27.4572 19.87418 0.0 0.0 0.0 0
Ga 8.90782 5.41558 18.2984 0.0 0.0 0.0 0
O 42.8994 24.2713 14.06835 0.0 0.0 0.0 0
Ga 39.6643 18.9507 23.4933 0.0 0.0 0.0 1
O 21.8591 27.6824 33.2371 0.0 0.0 0.0 2
O 23.7304 37.1121 21.0466 0.0 0.0 0.0 2
Ga 39.0687 27.727 18.55557 0.0 0.0 0.0 0
O 48.199 41.5662 15.98135 0.0 0.0 0.0 0
Ga 29.845 4.39942 15.58654 0.0 0.0 0.0 0
O 32.9444 28.7741 14.88601 0.0 0.0 0.0 0
O 28.8921 44.5048 19.14354 0.0 0.0 0.0 0
O 20.3602 48.4806 17.68596 0.0 0.0 0.0 0
Ga 30.5271 0.71879 19.11599 0.0 0.0 0.0 0
O 22.3288 23.9283 23.0434 0.0 0.0 0.0 1
O 23.9139 6.48246 27.9102 0.0 0.0 0.0 1
O 29.7327 46.0496 29.0723 0.0 0.0 0.0 2
O 34.1419 22.0044 23.2252 0.0 0.0 0.0 1
Ga 32.604 47.9065 23.2709 0.0 0.0 0.0 2
O 42.5183 39.8197 11.10594 0.0 0.0 0.0 0
O 32.6377 15.1461 21.9189 0.0 0.0 0.0 1
Ga 39.6668 18.4959 20.4892 0.0 0.0 0.0 1
O 4.71501 33.7689 21.7802 0.0 0.0 0.0 2
O 45.0106 28.7164 33.3825 0.0 0.0 0.0 2
O 22.5951 2.10533 15.17887 0.0 0.0 0.0 0
O 41.2958 5.37397 32.6253 0.0 0.0 0.0 1
Ga 45.4505 7.02864 10.281558 0.0 0.0 0.0 0
O 13.7073 23.3046 18.66627 0.0 0.0 0.0 0
O 40.6557 0.18093 26.6172 0.0 0.0 0.0 1
Ga 7.94795 20.931 24.5224 0.0 0.0 0.0 1
O 43.8816 4.09062 24.3283 0.0 0.0 0.0 1
Ga 31.5019 27.5997 15.11597 0.0 0.0 0.0 0
O 8.0494 28.1089 18.93307 0.0 0.0 0.0 0
Ga 11.9147 40.8063 24.1554 0.0 0.0 0.0 2
O 32.6048 17.6544 21.0937 0.0 0.0 0.0 1
O 24.3386 22.3602 26.5238 0.0 0.0 0.0 1
Ga 15.9728 27.1509 14.78565 0.0 0.0 0.0 0
O 14.0322 10.5127 15.76677 0.0 0.0 0.0 0
O 39.7132 14.8278 24.1324 0.0 0.0 0.0 1
Ga 16.0571 38.8903 33.5706 0.0 0.0 0.0 2
Ga 49.5494 1.34307 10.854925 0.0 0.0 0.0 0
O 11.7309 4.45568 26.6492 0.0 0.0 0.0 1
Ga 11.6897 25.6364 15.52639 0.0 0.0 0.0 0
O 49.2006 32.4425 20.7343 0.0 0.0 0.0 2
Ga 18.2919 19.5221 26.1791 0.0 0.0 0.0 1
O 35.001 25.143 11.51872 0.0 0.0 0.0 0
O 10.9326 4.67832 32.012 0.0 0.0 0.0 1
Ga 6.37132 17.5298 34.5591 0.0 0.0 0.0 1
O 29.9329 15.4746 26.7876 0.0 0.0 0.0 1
Ga 17.2106 32.8442 29.1974 0.0 0.0 0.0 2
O 7.56716 25.1699 26.9368 0.0 0.0 0.0 2
O 45.1639 1.68672 29.7239 0.0 0.0 0.0 1
O 26.121 10.9952 22.1495 0.0 0.0 0.0 1
Ga 29.087 4.8898 21.1281 0.0 0.0 0.0 1
Ga 15.7074 31.7141 16.40646 0.0 0.0 0.0 0
O 12.7045 25.9448 17.15524 0.0 0.0 0.0 0
O 5.87113 35.9044 27.9729 0.0 0.0 0.0 2
O 49.7151 22.5146 17.30157 0.0 0.0 0.0 0
Ga 41.6659 22.5262 34.0771 0.0 0.0 0.0 1
Ga 13.4487 1.12209 15.5484 0.0 0.0 0.0 0
O 37.2317 37.3506 23.5932 0.0 0.0 0.0 2
O 15.9619 25.8448 29.7183 0.0 0.0 0.0 2
Ga 47.1061 6.51107 15.2769 0.0 0.0 0.0 0
O 16.712 30.7348 29.7606 0.0 0.0 0.0 2
O 17.3993 7.64529 14.74688 0.0 0.0 0.0 0
O 42.8684 20.2544 19.21061 0.0 0.0 0.0 0
Ga 17.1488 15.3222 26.2173 0.0 0.0 0.0 1
O 17.5501 48.7803 14.52972 0.0 0.0 0.0 0
Ga 5.36356 0.64263 27.6975 0.0 0.0 0.0 1
O 4.27568 13.3771 10.961522 0.0 0.0 0.0 0
O 25.2199 34.1671 15.3634 0.0 0.0 0.0 0
O 30.312 35.0553 28.5174 0.0 0.0 0.0 2
Ga 5.88982 13.31 15.20289 0.0 0.0 0.0 0
O 48.8281 45.5837 17.11354 0.0 0.0 0.0 0
O 31.4104 27.861 13.15634 0.0 0.0 0.0 0
O 8.33515 18.5321 34.2435 0.0 0.0 0.0 1
O 27.969 49.3137 21.7252 0.0 0.0 0.0 2
O 48.4452 24.2872 33.8682 0.0 0.0 0.0 1
O 22.2806 24.6698 14.5375 0.0 0.0 0.0 0
Ga 23.9041 17.859 10.841384 0.0 0.0 0.0 0
O 47.1276 28.1964 31.0552 0.0 0.0 0.0 2
O 32.9045 17.0932 23.7012 0.0 0.0 0.0 1
Ga 39.1571 16.2024 29.7439 0.0 0.0 0.0 1
O 42.0788 3.56727 11.41503 0.0 0.0 0.0 0
Ga 47.6953 10.6219 16.59485 0.0 0.0 0.0 0
O 21.7473 44.0978 32.5 0.0 0.0 0.0 2
O 40.5006 35.9157 13.63209 0.0 0.0 0.0 0
Ga 8.44227 36.4745 32.2937 0.0 0.0 0.0 2
O 42.8846 9.56939 12.121 0.0 0.0 0.0 0
Ga 12.2302 13.4601 13.60669 0.0 0.0 0.0 0
O 48.8341 41.7664 26.256 0.0 0.0 0.0 2
O 41.8061 24.486 20.0718 0.0 0.0 0.0 1
Ga 42.2724 33.134 27.2276 0.0 0.0 0.0 2
O 9.58809 23.454 34.977 0.0 0.0 0.0 1
O 44.2591 25.2474 19.22958 0.0 0.0 0.0 0
Ga 7.98338 0.858687 30.9478 0.0 0.0 0.0 1
O 6.79697 27.6518 11.5995 0.0 0.0 0.0 0
O 49.4679 23.3377 14.1561 0.0 0.0 0.0 0
O 1.19412 13.0901 33.7996 0.0 0.0 0.0 1
Ga 12.3307 25.5972 30.2621 0.0 0.0 0.0 2
O 37.5304 39.029 11.21521 0.0 0.0 0.0 0
O 25.7221 17.7881 14.76269 0.0 0.0 0.0 0
O 1.63622 46.0196 16.70573 0.0 0.0 0.0 0
O 24.9168 30.8062 11.68254 0.0 0.0 0.0 0
O 32.118 33.1537 33.2675 0.0 0.0 0.0 2
Ga 28.4229 0.230375 16.73907 0.0 0.0 0.0 0
O 24.0987 4.0786 29.9508 0.0 0.0 0.0 1
Ga 49.5756 22.7851 34.563 0.0 0.0 0.0 1
O 3.82952 11.8141 33.5584 0.0 0.0 0.0 1
Ga 1.69022 18.5296 32.489 0.0 0.0 0.0 1
O 10.8991 45.1686 27.9267 0.0 0.0 0.0 2
O 38.1899 10.4524 33.8842 0.0 0.0 0.0 1
O 14.4901 40.0189 12.29646 0.0 0.0 0.0 0
Ga 11.0512 22.3671 34.3878 0.0 0.0 0.0 1
O 5.00533 13.7471 24.3156 0.0 0.0 0.0 1
Ga 30.6014 26.8462 23.3409 0.0 0.0 0.0 2
O 8.85066 19.9782 17.08968 0.0 0.0 0.0 0
Ga 12.8955 19.7716 19.2071 0.0 0.0 0.0 0
Ga 26.5194 49.3222 10.491246 0.0 0.0 0.0 0
O 49.3828 16.9753 17.41874 0.0 0.0 0.0 0
O 18.0383 39.19 16.09134 0.0 0.0 0.0 0
Ga 35.8587 49.6571 24.0929 0.0 0.0 0.0 2
O 37.8615 16.7443 28.4028 0.0 0.0 0.0 1
Ga 31.4089 22.565 20.3332 0.0 0.0 0.0 1
O 47.3107 7.44111 25.2174 0.0 0.0 0.0 1
O 33.0723 46.9215 18.04671 0.0 0.0 0.0 0
Ga 18.1231 7.35223 16.49065 0.0 0.0 0.0 0
Ga 34.4211 31.3259 19.37105 0.0 0.0 0.0 0
O 12.1198 6.61758 11.83512 0.0 0.0 0.0 0
Ga 21.5998 44.1731 10.383322 0.0 0.0 0.0 0
O 30.7219 17.9975 27.9327 0.0 0.0 0.0 1
Ga 34.2704 18.2273 26.2049 0.0 0.0 0.0 1
O 16.3489 38.4335 31.7529 0.0 0.0 0.0 2
Ga 12.2974 44.0542 23.8064 0.0 0.0 0.0 2
O 40.3956 35.3651 33.7586 0.0 0.0 0.0 2
Ga 38.2306 8.23033 11.97354 0.0 0.0 0.0 0
O 23.6495 39.9672 20.7363 0.0 0.0 0.0 2
O 24.2363 6.4522 34.6064 0.0 0.0 0.0 1
O 29.8739 34.407 10.798479 0.0 0.0 0.0 0
Ga 39.2541 49.1819 12.85446 0.0 0.0 0.0 0
O 18.6172 21.7054 29.3753 0.0 0.0 0.0 1
O 16.7263 5.1256 20.1652 0.0 0.0 0.0 1
Ga 22.5048 37.6567 33.5849 0.0 0.0 0.0 2
O 49.682 27.2627 15.99337 0.0 0.0 0.0 0
Ga 6.89008 11.9525 20.6617 0.0 0.0 0.0 1
O 3.98246 8.7407 32.3378 0.0 0.0 0.0 1
O 0.0809871 26.2411 19.04692 0.0 0.0 0.0 0
O 27.6943 10.9032 15.56098 0.0 0.0 0.0 0
O 16.5786 15.2113 30.7404 0.0 0.0 0.0 1
O 16.5672 30.6019 17.80076 0.0 0.0 0.0 0
O 44.1588 7.05137 32.2053 0.0 0.0 0.0 1
Ga 6.56455 14.99 25.3605 0.0 0.0 0.0 1
O 29.4131 40.1262 10.362971 0.0 0.0 0.0 0
O 49.8501 29.6246 19.8463 0.0 0.0 0.0 0
Ga 24.2405 10.9408 21.6954 0.0 0.0 0.0 1
Ga 40.297 39.8727 18.46285 0.0 0.0 0.0 0
Ga 11.8136 22.7812 18.72827 0.0 0.0 0.0 0
O 9.546 31.5998 12.08928 0.0 0.0 0.0 0
O 42.4867 14.2328 31.7725 0.0 0.0 0.0 1
Ga 47.8771 2.83208 25.673 0.0 0.0 0.0 1
O 33.0435 30.5255 20.3057 0.0 0.0 0.0 2
Ga 38.3 33.2624 24.046 0.0 0.0 0.0 2
O 25.8 11.5255 27.3338 0.0 0.0 0.0 1
O 22.776 7.73086 25.532 0.0 0.0 0.0 1
Ga 4.48893 2.33762 33.9831 0.0 0.0 0.0 1
Ga 14.0211 25.0196 18.07793 0.0 0.0 0.0 0
O 34.4655 36.1264 18.00054 0.0 0.0 0.0 0
Ga 1.53786 31.289 31.3311 0.0 0.0 0.0 2
O 1.45554 0.514763 10.872767 0.0 0.0 0.0 0
O 18.5422 9.29283 20.6955 0.0 0.0 0.0 1
O 19.1271 34.043 26.1472 0.0 0.0 0.0 2
Ga 32.1936 9.0867 21.5267 0.0 0.0 0.0 1
O 48.4193 29.5252 28.78 0.0 0.0 0.0 2
Ga 9.11805 12.6704 34.0635 0.0 0.0 0.0 1
O 16.786 31.5892 21.7352 0.0 0.0 0.0 2
Ga 47.6212 14.8585 20.7967 0.0 0.0 0.0 1
O 18.3651 13.5422 32.8221 0.0 0.0 0.0 1
O 2.15286 23.8503 25.286 0.0 0.0 0.0 1
Ga 3.98683 11.5223 11.13283 0.0 0.0 0.0 0
O 0.62884 1.48728 27.7585 0.0 0.0 0.0 1
Ga 32.005 34.2787 28.9219 0.0 0.0 0.0 2
O 20.3661 11.1885 10.944978 0.0 0.0 0.0 0
Ga 43.8035 4.34337 26.2297 0.0 0.0 0.0 1
Ga 11.3069 11.9517 29.7148 0.0 0.0 0.0 1
O 41.0768 39.4497 20.3174 0.0 0.0 0.0 2
Ga 16.2551 21.9206 12.62259 0.0 0.0 0.0 0
O 11.1545 32.7122 25.2503 0.0 0.0 0.0 2
Ga 6.38428 39.2534 11.7972 0.0 0.0 0.0 0
Ga 10.4876 26.2583 32.7313 0.0 0.0 0.0 2
O 7.06906 45.654 11.94739 0.0 0.0 0.0 0
Ga 43.7393 19.6244 23.9162 0.0 0.0 0.0 1
O 41.1416 37.4214 31.8892 0.0 0.0 0.0 2
O 12.8506 43.3164 20.0508 0.0 0.0 0.0 2
O 33.2722 8.4014 32.8505 0.0 0.0 0.0 1
O 31.3929 4.44354 26.6362 0.0 0.0 0.0 1
O 22.1891 39.0169 23.2443 0.0 0.0 0.0 2
Ga 45.8964 38.9481 21.4692 0.0 0.0 0.0 2
O 26.062 46.5247 32.8329 0.0 0.0 0.0 2
O 46.5398 43.5309 17.0858 0.0 0.0 0.0 0
O 29.7172 8.99662 14.64702 0.0 0.0 0.0 0
Ga 21.2387 8.4378 16.5001 0.0 0.0 0.0 0
Ga 7.66377 28.944 14.38924 0.0 0.0 0.0 0
O 14.9726 47.2775 26.8234 0.0 0.0 0.0 2
O 22.0018 10.0208 27.3966 0.0 0.0 0.0 1
Ga 36.8809 13.2408 21.2725 0.0 0.0 0.0 1
O 7.35696 7.42129 20.3494 0.0 0.0 0.0 1
Ga 7.75871 23.4071 33.9573 0.0 0.0 0.0 1
O 29.5435 27.5463 29.6113 0.0 0.0 0.0 2
Ga 32.129 12.3708 12.25371 0.0 0.0 0.0 0
O 8.45171 31.2004 26.6673 0.0 0.0 0.0 2
O 33.2673 47.4367 21.0757 0.0 0.0 0.0 2
O 30.482 30.1857 18.5972 0.0 0.0 0.0 0
O 33.7926 30.3452 12.70279 0.0 0.0 0.0 0
Ga 24.1691 12.1667 13.67334 0.0 0.0 0.0 0
O 36.1146 46.6864 11.3773 0.0 0.0 0.0 0
O 14.0336 30.9594 10.334822 0.0 0.0 0.0 0
Ga 15.6739 0.659974 28.6389 0.0 0.0 0.0 1
Ga 39.2124 8.08438 29.7488 0.0 0.0 0.0 1
O 23.0084 38.7661 12.65701 0.0 0.0 0.0 0
O 44.8484 14.9358 17.52676 0.0 0.0 0.0 0
Ga 25.3884 2.45645 32.1978 0.0 0.0 0.0 1
O 19.2881 0.36192 25.5016 0.0 0.0 0.0 1
Ga 20.1274 13.6291 28.7792 0.0 0.0 0.0 1
Ga 28.8252 10.6606 33.7827 0.0 0.0 0.0 1
O 46.3162 17.1812 10.360262 0.0 0.0 0.0 0
Ga 42.2259 44.8518 11.51 0.0 0.0 0.0 0
Ga 30.0473 42.297 28.1276 0.0 0.0 0.0 2
O 41.6859 10.2702 34.3762 0.0 0.0 0.0 1
O 33.2697 0.953716 29.2349 0.0 0.0 0.0 1
Ga 11.7255 9.18774 21.3626 0.0 0.0 0.0 1
O 38.6855 4.99662 34.9064 0.0 0.0 0.0 1
O 2.72841 42.1448 11.47971 0.0 0.0 0.0 0
Ga 15.9449 3.49617 27.0117 0.0 0.0 0.0 1
O 47.7244 30.1926 33.2281 0.0 0.0 0.0 2
O 43.4141 40.3919 19.40545 0.0 0.0 0.0 0
Ga 35.2586 13.1081 24.0339 0.0 0.0 0.0 1
O 36.5544 33.9422 24.9231 0.0 0.0 0.0 2
Ga 46.5141 20.2912 22.8262 0.0 0.0 0.0 1
O 35.5398 27.9122 20.0724 0.0 0.0 0.0 2
Ga 18.7905 22.888 26.2206 0.0 0.0 0.0 1
O 37.4927 26.0353 12.93005 0.0 0.0 0.0 0
O 30.3805 28.1527 32.7859 0.0 0.0 0.0 2
O 41.4744 36.2717 29.3878 0.0 0.0 0.0 2
Ga 36.6728 16.8157 21.049 0.0 0.0 0.0 1
O 31.2495 20.9663 21.1735 0.0 0.0 0.0 1
Ga 39.6724 44.6297 17.2022 0.0 0.0 0.0 0
Ga 1.62942 45.1612 27.6324 0.0 0.0 0.0 2
O 22.3543 36.4136 32.1364 0.0 0.0 0.0 2
O 20.0677 22.098 12.81843 0.0 0.0 0.0 0
O 11.6173 24.0934 23.8882 0.0 0.0 0.0 1
Ga 10.1399 39.4108 20.3527 0.0 0.0 0.0 2
O 49.116 47.3409 25.5177 0.0 0.0 0.0 2
O 33.1433 9.64955 30.3833 0.0 0.0 0.0 1
O 40.2311 4.15583 21.961 0.0 0.0 0.0 1
Ga 45.0476 37.5756 29.8788 0.0 0.0 0.0 2
O 0.475115 3.18043 10.713465 0.0 0.0 0.0 0
Ga 29.3952 31.3687 19.60493 0.0 0.0 0.0 0
O 5.24988 34.3837 11.70456 0.0 0.0 0.0 0
O 36.498 14.5083 31.0312 0.0 0.0 0.0 1
O 7.3087 43.7851 21.5332 0.0 0.0 0.0 2
Ga 47.6469 33.4997 23.075 0.0 0.0 0.0 2
O 34.9131 45.293 34.2758 0.0 0.0 0.0 2
O 34.5459 9.03146 13.2544 0.0 0.0 0.0 0
Ga 36.9349 34.2795 33.9728 0.0 0.0 0.0 2
O 44.3371 2.40082 19.79336 0.0 0.0 0.0 0
O 22.935 31.088 18.18556 0.0 0.0 0.0 0
Ga 30.7125 3.87945 28.3868 0.0 0.0 0.0 1
Ga 42.1979 41.9001 32.0499 0.0 0.0 0.0 2
Ga 43.0712 29.2712 29.5132 0.0 0.0 0.0 2
O 25.4505 33.9525 25.0053 0.0 0.0 0.0 2
O 45.8807 34.0564 32.0008 0.0 0.0 0.0 2
O 24.6828 1.5131 30.7756 0.0 0.0 0.0 1
O 40.0775 17.9174 28.9086 0.0 0.0 0.0 1
Ga 1.76732 6.41587 26.3278 0.0 0.0 0.0 1
O 0.873699 36.6793 17.78006 0.0 0.0 0.0 0
Ga 39.7388 33.3055 29.5707 0.0 0.0 0.0 2
Ga 29.0811 47.5357 18.69357 0.0 0.0 0.0 0
O 30.4688 17.6674 25.054 0.0 0.0 0.0 1
Ga 14.7243 41.9193 24.9831 0.0 0.0 0.0 2
O 49.1759 40.2228 33.1982 0.0 0.0 0.0 2
Ga 37.4678 15.3219 27.2988 0.0 0.0 0.0 1
O 33.8212 42.5212 29.4916 0.0 0.0 0.0 2
Ga 42.016 19.2845 33.4902 0.0 0.0 0.0 1
O 11.8056 27.4863 33.0207 0.0 0.0 0.0 2
O 48.1513 5.26915 21.676 0.0 0.0 0.0 1
O 41.2112 13.0863 15.1695 0.0 0.0 0.0 0
O 25.4991 44.938 27.8439 0.0 0.0 0.0 2
O 39.3307 48.4188 14.82726 0.0 0.0 0.0 0
Ga 22.4888 6.62596 33.9858 0.0 0.0 0.0 1
O 27.1005 45.0819 30.3253 0.0 0.0 0.0 2
O 9.21135 5.87984 12.71894 0.0 0.0 0.0 0
O 28.955 7.34565 16.41629 0.0 0.0 0.0 0
O 3.7353 29.5765 24.7478 0.0 0.0 0.0 2
Ga 33.9702 40.4615 27.6332 0.0 0.0 0.0 2
O 47.7345 30.0396 25.7303 0.0 0.0 0.0 2
O 18.5024 29.8598 19.92957 0.0 0.0 0.0 0
O 22.8391 14.7907 22.7838 0.0 0.0 0.0 1
Ga 19.5298 32.7012 27.5052 0.0 0.0 0.0 2
O 20.4721 19.9981 29.4323 0.0 0.0 0.0 1
Ga 14.1847 42.8834 28.2983 0.0 0.0 0.0 2
O 29.7624 39.131 19.05401 0.0 0.0 0.0 0
Ga 41.3437 45.9147 26.9115 0.0 0.0 0.0 2
O 18.5318 12.1558 24.4589 0.0 0.0 0.0 1
Ga 17.8788 27.144 17.10839 0.0 0.0 0.0 0
O 30.8527 34.0816 21.9859 0.0 0.0 0.0 2
O 10.3839 21.9067 30.9969 0.0 0.0 0.0 1
Ga 12.9501 38.9374 12.50409 0.0 0.0 0.0 0
Ga 11.1874 6.49211 20.6856 0.0 0.0 0.0 1
O 13.4014 8.9719 24.631 0.0 0.0 0.0 1
O 20.7932 39.3476 20.5373 0.0 0.0 0.0 2
Ga 44.5849 15.088 21.9193 0.0 0.0 0.0 1
O 4.61143 42.0217 32.0837 0.0 0.0 0.0 2
Ga 23.7192 32.8968 15.66638 0.0 0.0 0.0 0
O 10.929 3.18762 29.3282 0.0 0.0 0.0 1
Ga 17.3153 34.8221 21.7229 0.0 0.0 0.0 2
O 38.6361 13.5535 15.40779 0.0 0.0 0.0 0
O 41.1079 29.5324 29.1879 0.0 0.0 0.0 2
Ga 3.087 49.0757 25.9611 0.0 0.0 0.0 2
O 10.786 44.3293 32.5703 0.0 0.0 0.0 2
Ga 43.1711 35.484 28.843 0.0 0.0 0.0 2
O 31.1905 13.188 30.916 0.0 0.0 0.0 1
O 29.7864 25.7281 24.7342 0.0 0.0 0.0 2
Ga 36.8295 32.395 29.1333 0.0 0.0 0.0 2
O 8.99005 42.5315 23.3751 0.0 0.0 0.0 2
O 6.86371 17.8976 17.42696 0.0 0.0 0.0 0
Ga 40.0925 25.5561 23.5351 0.0 0.0 0.0 2
O 33.4424 46.4279 24.205 0.0 0.0 0.0 2
O 19.1064 34.5447 21.0434 0.0 0.0 0.0 2
Ga 39.0886 14.5305 19.20394 0.0 0.0 0.0 0
O 44.282 5.10721 13.23445 0.0 0.0 0.0 0
Ga 8.13265 42.8547 28.958 0.0 0.0 0.0 2
Ga 24.8083 30.1099 24.5881 0.0 0.0 0.0 2
O 15.2937 32.998 17.85385 0.0 0.0 0.0 0
O 11.5724 49.2248 30.5895 0.0 0.0 0.0 2
O 3.85054 29.2584 29.3686 0.0 0.0 0.0 2
O 24.7837 40.2032 27.4013 0.0 0.0 0.0 2
Ga 24.9321 22.7023 21.9356 0.0 0.0 0.0 1
O 45.6299 42.4849 19.68952 0.0 0.0 0.0 0
Ga 37.3583 48.2681 15.05375 0.0 0.0 0.0 0
Ga 28.1589 36.0257 16.05686 0.0 0.0 0.0 0
O 5.77249 48.9341 28.3183 0.0 0.0 0.0 2
Ga 7.65307 34.5213 23.8683 0.0 0.0 0.0 2
O 49.6323 1.44427 30.7346 0.0 0.0 0.0 1
O 36.1358 40.8624 22.7102 0.0 0.0 0.0 2
O 45.2122 0.00506707 18.42503 0.0 0.0 0.0 0
Ga 2.90772 1.72139 10.87252 0.0 0.0 0.0 0
Ga 49.2957 21.7995 24.0687 0.0 0.0 0.0 1
Ga 24.0454 15.2618 18.21073 0.0 0.0 0.0 0
O 8.39744 12.3837 12.75351 0.0 0.0 0.0 0
O 26.6731 20.3452 15.44881 0.0 0.0 0.0 0
Ga 43.9309 7.2593 16.29188 0.0 0.0 0.0 0
O 28.7312 43.0926 29.2295 0.0 0.0 0.0 2
Ga 26.0514 28.1293 32.3946 0.0 0.0 0.0 2
Ga 32.7675 6.50934 11.03899 0.0 0.0 0.0 0
Ga 24.0624 49.8296 27.767 0.0 0.0 0.0 2
O 11.284 19.1533 18.41303 0.0 0.0 0.0 0
Ga 11.6961 19.1849 33.6766 0.0 0.0 0.0 1
O 30.1035 23.9129 20.2304 0.0 0.0 0.0 1
O 38.3022 6.18836 16.46278 0.0 0.0 0.0 0
O 5.06927 2.3339 13.8224 0.0 0.0 0.0 0
Ga 39.9268 28.5908 25.8762 0.0 0.0 0.0 2
O 41.7349 33.1264 18.12482 0.0 0.0 0.0 0
O 49.8324 47.666 22.4441 0.0 0.0 0.0 2
O 13.5299 44.6175 22.3784 0.0 0.0 0.0 2
O 7.06792 4.27653 22.138 0.0 0.0 0.0 1
O 23.9323 0.697481 21.6335 0.0 0.0 0.0 1
Ga 29.3156 39.6157 31.2678 0.0 0.0 0.0 2
O 12.4774 28.3608 27.1016 0.0 0.0 0.0 2
O 34.7322 16.1582 32.6579 0.0 0.0 0.0 1
Ga 38.2586 40.8956 20.8607 0.0 0.0 0.0 2
O 10.4666 19.9936 27.0474 0.0 0.0 0.0 1
O 27.394 34.4859 27.8517 0.0 0.0 0.0 2
O 31.6382 37.6011 27.461 0.0 0.0 0.0 2
O 47.5334 14.8031 17.51179 0.0 0.0 0.0 0
O 23.3623 5.05525 14.67028 0.0 0.0 0.0 0
O 9.12876 24.0331 29.3439 0.0 0.0 0.0 1
O 3.23775 26.8838 14.28569 0.0 0.0 0.0 0
Ga 34.7899 39.8615 16.76993 0.0 0.0 0.0 0
O 48.5783 17.6487 14.70787 0.0 0.0 0.0 0
O 31.0759 42.3594 30.0126 0.0 0.0 0.0 2
O 28.4489 34.4178 30.8691 0.0 0.0 0.0 2
Ga 1.79271 2.28491 17.08482 0.0 0.0 0.0 0
O 5.3689 2.12865 20.5073 0.0 0.0 0.0 1
O 10.0408 43.5857 20.6412 0.0 0.0 0.0 2
O 43.3814 39.8509 13.5634 0.0 0.0 0.0 0
Ga 23.5636 19.828 22.82 0.0 0.0 0.0 1
Ga 15.5663 19.1371 14.10125 0.0 0.0 0.0 0
Ga 27.2718 9.89083 18.76627 0.0 0.0 0.0 0
Ga 1.11488 23.555 13.26603 0.0 0.0 0.0 0
O 29.9549 48.9901 19.71578 0.0 0.0 0.0 0
Ga 14.5616 14.6814 30.5737 0.0 0.0 0.0 1
O 37.2709 46.2667 32.096 0.0 0.0 0.0 2
O 24.5598 44.3746 31.6865 0.0 0.0 0.0 2
Ga 39.2122 15.534 22.3884 0.0 0.0 0.0 1
O 13.1662 25.4358 25.8298 0.0 0.0 0.0 2
Ga 33.6519 5.33523 28.9687 0.0 0.0 0.0 1
O 9.19544 9.05018 18.37369 0.0 0.0 0.0 0
O 13.6581 33.6933 30.2011 0.0 0.0 0.0 2
O 4.96474 9.9301 14.37778 0.0 0.0 0.0 0
O 13.051 2.4879 21.2808 0.0 0.0 0.0 1
Ga 11.4468 0.764633 26.3329 0.0 0.0 0.0 1
O 21.1997 0.0621057 20.7794 0.0 0.0 0.0 1
Ga 32.2059 47.824 19.49825 0.0 0.0 0.0 0
O 24.7201 24.021 15.10208 0.0 0.0 0.0 0
Ga 31.2759 0.731277 24.1067 0.0 0.0 0.0 1
O 0.993988 2.61423 32.6546 0.0 0.0 0.0 1
Ga 38.1862 23.1575 24.6561 0.0 0.0 0.0 1
Ga 31.563 16.083 20.582 0.0 0.0 0.0 1
O 47.6007 7.18036 13.59766 0.0 0.0 0.0 0
O 40.9428 23.1016 25.4368 0.0 0.0 0.0 1
Ga 41.8823 43.125 24.8107 0.0 0.0 0.0 2
O 31.6525 25.4023 28.7931 0.0 0.0 0.0 2
Ga 37.472 46.0481 12.35956 0.0 0.0 0.0 0
O 35.7393 27.2859 24.5893 0.0 0.0 0.0 2
O 2.61414 3.098 28.0411 0.0 0.0 0.0 1
O 18.9504 24.8128 29.3922 0.0 0.0 0.0 1
O 7.661 25.8313 16.98829 0.0 0.0 0.0 0
Ga 39.8626 27.8001 14.95565 0.0 0.0 0.0 0
Ga 14.7155 37.322 31.7039 0.0 0.0 0.0 2
O 33.8767 38.4506 15.92868 0.0 0.0 0.0 0
O 38.5654 42.0432 27.9319 0.0 0.0 0.0 2
Ga 3.78894 31.3588 33.6603 0.0 0.0 0.0 2
Ga 46.1263 25.2333 22.7966 0.0 0.0 0.0 2
O 21.8395 28.5982 19.36173 0.0 0.0 0.0 0
Ga 23.9143 10.9192 27.4225 0.0 0.0 0.0 1
O 4.06291 45.1286 24.138 0.0 0.0 0.0 2
O 49.8299 45.3113 33.3673 0.0 0.0 0.0 2
O 41.1122 48.9311 17.08574 0.0 0.0 0.0 0
Ga 47.7061 26.0448 11.33681 0.0 0.0 0.0 0
O 7.69231 20.4874 11.82578 0.0 0.0 0.0 0
O 30.4332 18.9684 22.3019 0.0 0.0 0.0 1
Ga 21.6425 37.5254 27.2679 0.0 0.0 0.0 2
Ga 33.6035 1.63072 14.88919 0.0 0.0 0.0 0
O 12.8445 19.7318 22.357 0.0 0.0 0.0 1
Ga 19.5831 25.8187 24.6976 0.0 0.0 0.0 2
O 39.0595 17.653 12.11152 0.0 0.0 0.0 0
Ga 46.3726 37.3676 18.84323 0.0 0.0 0.0 0
Ga 30.5927 22.3066 33.8736 0.0 0.0 0.0 1
Ga 34.5072 30.6477 25.6991 0.0 0.0 0.0 2
Ga 29.1628 49.1543 13.15495 0.0 0.0 0.0 0
O 43.4533 1.13695 10.277824 0.0 0.0 0.0 0
Ga 31.2652 3.19839 32.9634 0.0 0.0 0.0 1
O 10.2897 29.7925 31.0123 0.0 0.0 0.0 2
O 19.0607 14.5706 18.17228 0.0 0.0 0.0 0
Ga 27.935 43.6991 22.6445 0.0 0.0 0.0 2
O 10.5126 20.6763 33.7039 0.0 0.0 0.0 1
Ga 5.67107 24.1472 11.15664 0.0 0.0 0.0 0
O 15.8465 39.2744 28.8032 0.0 0.0 0.0 2
O 46.6236 1.83541 32.1251 0.0 0.0 0.0 1
Ga 25.9859 31.3332 10.208239 0.0 0.0 0.0 0
Ga 42.3537 24.4288 25.5608 0.0 0.0 0.0 1
O 26.4178 1.45369 21.0797 0.0 0.0 0.0 1
O 49.0669 14.8989 14.92377 0.0 0.0 0.0 0
Ga 6.76075 31.7753 25.808 0.0 0.0 0.0 2
O 46.1216 41.9767 31.2132 0.0 0.0 0.0 2
O 33.1222 37.2285 13.33481 0.0 0.0 0.0 0
O 13.743 1.48056 12.3468 0.0 0.0 0.0 0
Ga 40.2271 36.2789 17.08085 0.0 0.0 0.0 0
O 12.2771 13.3228 15.3866 0.0 0.0 0.0 0
Ga 34.9686 18.5795 16.83842 0.0 0.0 0.0 0
O 11.5284 26.5128 13.59953 0.0 0.0 0.0 0
Ga 38.9459 7.21466 26.7884 0.0 0.0 0.0 1
O 33.5401 19.9008 13.57054 0.0 0.0 0.0 0
O 13.1479 47.4212 21.7053 0.0 0.0 0.0 2
Ga 43.5356 22.6279 10.158502 0.0 0.0 0.0 0
Ga 2.98971 4.66194 18.13119 0.0 0.0 0.0 0
Ga 48.9508 30.0579 17.26884 0.0 0.0 0.0 0
O 12.3419 42.4864 28.12 0.0 0.0 0.0 2
Ga 22.0356 48.0479 14.50667 0.0 0.0 0.0 0
O 47.4887 38.4253 34.8596 0.0 0.0 0.0 2
Ga 27.3977 11.7702 13.89413 0.0 0.0 0.0 0
Ga 21.9829 34.6411 32.6223 0.0 0.0 0.0 2
O 47.2589 2.46516 19.85945 0.0 0.0 0.0 0
Ga 17.9926 41.7544 27.0997 0.0 0.0 0.0 2
O 12.9553 13.521 10.412837 0.0 0.0 0.0 0
Ga 17.7389 45.5694 30.5578 0.0 0.0 0.0 2
O 12.9717 46.6621 16.99934 0.0 0.0 0.0 0
Ga 41.1065 16.9401 32.1198 0.0 0.0 0.0 1
O 44.0482 15.5842 27.4009 0.0 0.0 0.0 1
O 3.68384 26.8941 30.7634 0.0 0.0 0.0 2
Ga 34.6489 11.1008 29.5754 0.0 0.0 0.0 1
O 9.32866 3.60348 17.66894 0.0 0.0 0.0 0
Ga 4.67076 48.7362 10.328955 0.0 0.0 0.0 0
O 34.8714 30.2364 17.83472 0.0 0.0 0.0 0
Ga 43.8026 37.4953 22.9344 0.0 0.0 0.0 2
O 39.7486 11.2697 16.5213 0.0 0.0 0.0 0
Ga 7.6716 49.957 23.2254 0.0 0.0 0.0 2
O 46.7797 38.9738 19.74263 0.0 0.0 0.0 0
Ga 45.4342 18.8067 13.4018 0.0 0.0 0.0 0
O 43.5873 10.3345 21.9831 0.0 0.0 0.0 1
O 27.394 49.3254 25.5347 0.0 0.0 0.0 2
Ga 29.5894 10.8699 22.3209 0.0 0.0 0.0 1
O 44.1146 45.0381 20.6711 0.0 0.0 0.0 2
O 48.0435 46.9552 31.4711 0.0 0.0 0.0 2
O 39.8943 39.2098 25.5549 0.0 0.0 0.0 2
Ga 39.6415 29.9639 20.4064 0.0 0.0 0.0 2
Ga 37.281 44.5049 31.5083 0.0 0.0 0.0 2
Ga 20.9763 33.3025 14.25889 0.0 0.0 0.0 0
Ga 20.9155 35.7637 18.53579 0.0 0.0 0.0 0
Ga 9.10248 34.3351 14.05744 0.0 0.0 0.0 0
O 28.8117 5.43166 32.2193 0.0 0.0 0.0 1
Ga 29.9253 29.0258 12.88418 0.0 0.0 0.0 0
Ga 33.7158 44.9461 21.7694 0.0 0.0 0.0 2
O 40.0246 8.42066 33.5692 0.0 0.0 0.0 1
Ga 47.3216 12.3635 27.2148 0.0 0.0 0.0 1
O 33.2702 5.99693 14.67729 0.0 0.0 0.0 0
O 32.1856 20.3485 11.22158 0.0 0.0 0.0 0
O 38.0638 30.866 20.5698 0.0 0.0 0.0 2
O 11.8312 8.71175 30.8433 0.0 0.0 0.0 1
Ga 37.0451 39.6136 12.94779 0.0 0.0 0.0 0
O 27.7438 12.3611 10.327385 0.0 0.0 0.0 0
O 45.6839 35.2113 26.8173 0.0 0.0 0.0 2
O 34.3234 6.47244 12.10504 0.0 0.0 0.0 0
Ga 12.1636 30.2115 26.875 0.0 0.0 0.0 2
O 2.56035 20.8619 11.25042 0.0 0.0 0.0 0
O 42.7939 35.6476 32.6593 0.0 0.0 0.0 2
O 35.3637 37.354 34.1694 0.0 0.0 0.0 2
O 24.5354 18.1882 30.8887 0.0 0.0 0.0 1
O 14.2077 35.4474 18.38122 0.0 0.0 0.0 0
O 18.7564 14.1408 22.2003 0.0 0.0 0.0 1
O 34.5761 15.1083 13.25103 0.0 0.0 0.0 0
O 29.0733 31.2632 16.32014 0.0 0.0 0.0 0
Ga 47.2195 37.7492 27.3725 0.0 0.0 0.0 2
O 38.6892 17.3712 17.13742 0.0 0.0 0.0 0
Ga 22.3136 38.3037 20.3855 0.0 0.0 0.0 2
O 18.5432 10.5711 14.48654 0.0 0.0 0.0 0
Ga 44.6296 12.0715 24.9863 0.0 0.0 0.0 1
O 14.8233 16.44 12.10213 0.0 0.0 0.0 0
O 25.3972 16.4369 33.4605 0.0 0.0 0.0 1
O 20.1598 11.1311 22.2859 0.0 0.0 0.0 1
O 9.8895 36.3969 31.1891 0.0 0.0 0.0 2
O 42.1647 28.3837 34.0427 0.0 0.0 0.0 2
Ga 23.6031 49.0091 20.8661 0.0 0.0 0.0 2
O 5.59538 12.7451 27.1214 0.0 0.0 0.0 1
Ga 29.4994 10.9416 28.6501 0.0 0.0 0.0 1
O 4.19478 47.7556 26.5936 0.0 0.0 0.0 2
O 1.46423 16.2749 29.5721 0.0 0.0 0.0 1
O 40.7629 1.85992 24.0497 0.0 0.0 0.0 1
O 40.4983 48.6979 20.2048 0.0 0.0 0.0 2
O 30.746 30.5768 13.92646 0.0 0.0 0.0 0
Ga 28.612 14.7629 14.20459 0.0 0.0 0.0 0
O 13.6784 27.9002 11.54876 0.0 0.0 0.0 0
O 30.2582 17.603 20.0271 0.0 0.0 0.0 1
Ga 36.566 37.9291 28.5779 0.0 0.0 0.0 2
O 24.0598 18.7546 12.47381 0.0 0.0 0.0 0
O 38.3418 20.4595 32.4571 0.0 0.0 0.0 1
Ga 7.56199 7.37765 15.97569 0.0 0.0 0.0 0
O 30.5915 47.9129 33.373 0.0 0.0 0.0 2
O 10.4225 34.486 12.85913 0.0 0.0 0.0 0
Ga 17.1353 24.2316 17.49153 0.0 0.0 0.0 0
Ga 34.7259 36.4282 32.6341 0.0 0.0 0.0 2
Ga 9.98003 15.4465 26.7097 0.0 0.0 0.0 1
O 34.6152 27.4003 13.3108 0.0 0.0 0.0 0
Ga 45.8052 45.8953 20.5699 0.0 0.0 0.0 2
O 23.654 32.4404 30.2301 0.0 0.0 0.0 2
O 39.254 31.2145 34.0516 0.0 0.0 0.0 2
O 5.38585 27.3735 25.5576 0.0 0.0 0.0 2
Ga 16.8853 31.1512 34.5092 0.0 0.0 0.0 2
O 46.8416 32.7647 15.93185 0.0 0.0 0.0 0
Ga 26.4652 32.6705 25.9632 0.0 0.0 0.0 2
O 33.5271 29.1007 25.227 0.0 0.0 0.0 2
Ga 37.1425 48.3895 18.22862 0.0 0.0 0.0 0
O 2.75383 33.5032 13.32228 0.0 0.0 0.0 0
Ga 23.7988 35.6111 22.3806 0.0 0.0 0.0 2
O 26.574 9.11447 17.21015 0.0 0.0 0.0 0
O 27.1836 4.65458 13.93819 0.0 0.0 0.0 0
Ga 36.4251 20.9478 29.6768 0.0 0.0 0.0 1
Ga 28.6997 26.9096 11.0692 0.0 0.0 0.0 0
O 30.8695 30.3259 25.968 0.0 0.0 0.0 2
Ga 4.82275 36.5719 15.14827 0.0 0.0 0.0 0
O 8.40915 24.3368 32.3281 0.0 0.0 0.0 1
O 44.3317 35.7746 30.3561 0.0 0.0 0.0 2
Ga 4.25047 49.7212 15.65479 0.0 0.0 0.0 0
O 45.9988 2.95532 22.5236 0.0 0.0 0.0 1
Ga 2.9211 5.17785 21.1265 0.0 0.0 0.0 1
O 31.8677 20.9932 31.0475 0.0 0.0 0.0 1
O 41.982 28.5611 26.5508 0.0 0.0 0.0 2
Ga 26.2795 24.2389 16.16974 0.0 0.0 0.0 0
Ga 10.3236 29.5647 10.256832 0.0 0.0 0.0 0
O 23.1707 40.6973 17.97803 0.0 0.0 0.0 0
Ga 48.1563 42.8549 27.5461 0.0 0.0 0.0 2
O 8.89268 16.9616 16.03925 0.0 0.0 0.0 0
Ga 26.1713 15.4439 29.202 0.0 0.0 0.0 1
O 27.9781 46.3798 17.37228 0.0 0.0 0.0 0
O 27.6513 16.5455 20.6405 0.0 0.0 0.0 1
Ga 25.9469 35.5993 28.2173 0.0 0.0 0.0 2
O 13.9721 20.3643 17.77365 0.0 0.0 0.0 0
O 49.2773 24.164 20.669 0.0 0.0 0.0 1
Ga 12.0024 33.3385 21.6693 0.0 0.0 0.0 2
O 48.0387 35.653 34.1334 0.0 0.0 0.0 2
Ga 41.6283 2.12371 32.9778 0.0 0.0 0.0 1
Ga 36.3276 16.0375 24.142 0.0 0.0 0.0 1
O 46.1565 39.8387 14.7585 0.0 0.0 0.0 0
O 2.20301 40.9 33.384 0.0 0.0 0.0 2
O 33.1586 13.0386 23.8202 0.0 0.0 0.0 1
O 20.4347 4.30748 14.68243 0.0 0.0 0.0 0
Ga 5.64758 45.7024 18.18494 0.0 0.0 0.0 0
O 2.81835 15.0844 32.006 0.0 0.0 0.0 1
Ga 26.1849 28.683 19.59979 0.0 0.0 0.0 0
O 9.83522 28.9638 34.2701 0.0 0.0 0.0 2
O 20.9993 26.6276 23.9074 0.0 0.0 0.0 2
Ga 16.7076 37.9137 19.40336 0.0 0.0 0.0 0
Ga 20.3371 21.8482 28.6572 0.0 0.0 0.0 1
Ga 32.5868 24.5172 32.5942 0.0 0.0 0.0 1
Ga 41.5669 39.3622 12.7243 0.0 0.0 0.0 0
Ga 21.9467 46.2555 21.2366 0.0 0.0 0.0 2
O 19.2384 26.8746 20.3226 0.0 0.0 0.0 2
O 37.3951 19.3387 29.8649 0.0 0.0 0.0 1
O 25.2571 41.9253 16.26833 0.0 0.0 0.0 0
Ga 22.7823 28.4347 14.95564 0.0 0.0 0.0 0
Ga 40.6573 45.6016 22.7513 0.0 0.0 0.0 2
O 3.19803 25.8161 18.72607 0.0 0.0 0.0 0
O 48.8519 5.06907 15.82968 0.0 0.0 0.0 0
Ga 6.95004 40.4979 21.3977 0.0 0.0 0.0 2
O 35.7044 43.9936 30.7282 0.0 0.0 0.0 2
Ga 8.82759 10.3663 15.49037 0.0 0.0 0.0 0
O 31.0483 10.0396 27.7768 0.0 0.0 0.0 1
O 3.07031 2.84256 18.47375 0.0 0.0 0.0 0
Ga 40.085 7.67875 21.0597 0.0 0.0 0.0 1
Ga 29.227 40.3852 17.72475 0.0 0.0 0.0 0
O 15.34 37.3008 20.4143 0.0 0.0 0.0 2
O 0.587168 45.0203 26.016 0.0 0.0 0.0 2
O 11.2989 42.9405 15.35892 0.0 0.0 0.0 0
Ga 6.95789 28.9146 17.54226 0.0 0.0 0.0 0
O 40.1555 23.5746 33.8399 0.0 0.0 0.0 1
O 35.4208 0.165952 25.9025 0.0 0.0 0.0 1
Ga 46.6028 12.0331 33.187 0.0 0.0 0.0 1
O 26.2661 3.1274 28.3853 0.0 0.0 0.0 1
Ga 0.92558 16.7938 20.1026 0.0 0.0 0.0 1
O 12.5872 31.6529 18.23381 0.0 0.0 0.0 0
Ga 3.20387 28.9253 13.46343 0.0 0.0 0.0 0
Ga 12.6416 11.5552 19.4161 0.0 0.0 0.0 0
Ga 31.8259 46.2955 16.552 0.0 0.0 0.0 0
O 6.27171 11.0061 24.7574 0.0 0.0 0.0 1
Ga 33.3065 40.1497 19.20241 0.0 0.0 0.0 0
Ga 12.1757 44.4852 16.32193 0.0 0.0 0.0 0
Ga 18.3517 37.3564 16.79501 0.0 0.0 0.0 0
Ga 2.50328 1.41689 23.6672 0.0 0.0 0.0 1
O 9.69134 28.9639 21.3352 0.0 0.0 0.0 2
O 40.2762 17.3098 22.6917 0.0 0.0 0.0 1
Ga 27.6217 24.8155 32.2478 0.0 0.0 0.0 1
O 20.1856 40.1872 14.12287 0.0 0.0 0.0 0
Ga 2.855 18.7488 15.5244 0.0 0.0 0.0 0
Ga 34.2339 45.1438 30.6625 0.0 0.0 0.0 2
O 28.9416 24.2682 17.81513 0.0 0.0 0.0 0
Ga 39.9631 43.3478 33.8361 0.0 0.0 0.0 2
O 26.5368 41.9553 25.253 0.0 0.0 0.0 2
O 4.59562 15.6409 18.3093 0.0 0.0 0.0 0
O 14.1157 6.34799 18.93849 0.0 0.0 0.0 0
Ga 34.1318 49.2728 33.0991 0.0 0.0 0.0 2
O 38.0889 10.6545 18.98583 0.0 0.0 0.0 0
Ga 19.0578 11.1398 30.2151 0.0 0.0 0.0 1
O 4.83148 17.6811 10.446613 0.0 0.0 0.0 0
O 6.37596 5.61797 32.1865 0.0 0.0 0.0 1
Ga 36.7771 32.533 11.40858 0.0 0.0 0.0 0
O 15.5079 13.8711 11.44194 0.0 0.0 0.0 0
Ga 3.11026 35.0759 21.8755 0.0 0.0 0.0 2
O 48.3041 13.1838 20.1484 0.0 0.0 0.0 1
Ga 32.9368 30.1341 32.3715 0.0 0.0 0.0 2
Ga 46.0667 17.7234 20.7446 0.0 0.0 0.0 1
O 23.5924 12.0339 25.9191 0.0 0.0 0.0 1
O 45.7222 30.6004 17.7516 0.0 0.0 0.0 0
Ga 27.3266 45.1312 19.87166 0.0 0.0 0.0 0
O 6.58941 22.7692 12.04735 0.0 0.0 0.0 0
O 35.2078 27.9647 28.0941 0.0 0.0 0.0 2
O 37.9067 4.3343 29.4448 0.0 0.0 0.0 1
O 38.0044 31.4659 24.7038 0.0 0.0 0.0 2
Ga 28.6564 38.9567 14.74962 0.0 0.0 0.0 0
O 40.7651 15.8224 30.6996 0.0 0.0 0.0 1
O 46.3462 37.5053 14.16601 0.0 0.0 0.0 0
Ga 9.61546 10.9836 22.5848 0.0 0.0 0.0 1
O 31.0196 5.96975 24.1307 0.0 0.0 0.0 1
Ga 35.8355 42.5746 29.33 0.0 0.0 0.0 2
O 11.7741 6.03414 33.8993 0.0 0.0 0.0 1
O 7.67971 7.28928 10.582886 0.0 0.0 0.0 0
Ga 21.8359 32.6626 30.0588 0.0 0.0 0.0 2
O 21.6949 10.2512 19.85636 0.0 0.0 0.0 0
Ga 44.2393 36.9659 26.356 0.0 0.0 0.0 2
O 32.5778 43.6933 24.3145 0.0 0.0 0.0 2
Ga 27.4439 33.4766 29.6253 0.0 0.0 0.0 2
Ga 31.8491 3.7596 18.2577 0.0 0.0 0.0 0
O 28.0198 39.8919 29.9454 0.0 0.0 0.0 2
O 19.1813 47.4895 12.0995 0.0 0.0 0.0 0
O 3.35836 14.2157 28.2716 0.0 0.0 0.0 1
Ga 6.5575 18.2996 25.7737 0.0 0.0 0.0 1
Ga 18.5464 30.4006 21.8069 0.0 0.0 0.0 2
O 28.743 9.08875 22.6392 0.0 0.0 0.0 1
O 9.01611 8.4899 15.31881 0.0 0.0 0.0 0
Ga 30.1721 21.7997 30.4464 0.0 0.0 0.0 1
Ga 0.455993 4.24436 24.1451 0.0 0.0 0.0 1
O 34.4138 19.4029 22.9485 0.0 0.0 0.0 1
O 26.3818 2.70844 25.5748 0.0 0.0 0.0 1
O 42.3118 27.5261 19.0069 0.0 0.0 0.0 0
Ga 28.76 18.5643 25.0352 0.0 0.0 0.0 1
O 20.7258 12.6449 14.9799 0.0 0.0 0.0 0
O 7.88824 14.6347 17.73321 0.0 0.0 0.0 0
Ga 30.0855 24.7865 34.9457 0.0 0.0 0.0 1
O 40.9718 43.5472 16.10344 0.0 0.0 0.0 0
Ga 21.4601 30.9072 16.81743 0.0 0.0 0.0 0
O 32.617 13.825 26.9798 0.0 0.0 0.0 1
Ga 35.6134 35.7096 21.3246 0.0 0.0 0.0 2
O 40.2528 47.3944 26.9744 0.0 0.0 0.0 2
Ga 22.7697 8.51453 22.8823 0.0 0.0 0.0 1
O 45.5378 36.4105 33.8325 0.0 0.0 0.0 2
Ga 41.0267 3.30409 25.3498 0.0 0.0 0.0 1
O 35.5541 49.6234 17.77919 0.0 0.0 0.0 0
O 19.4156 8.56659 33.7241 0.0 0.0 0.0 1
Ga 4.75964 22.3038 17.54476 0.0 0.0 0.0 0
O 15.9186 35.8666 32.3584 0.0 0.0 0.0 2
O 27.0385 8.48845 14.08884 0.0 0.0 0.0 0
Ga 1.84 45.7996 18.57822 0.0 0.0 0.0 0
O 12.6815 45.4302 14.7923 0.0 0.0 0.0 0
Ga 16.9368 14.303 12.65504 0.0 0.0 0.0 0
Ga 45.6191 26.3557 19.92109 0.0 0.0 0.0 0
O 28.4963 7.22736 34.6771 0.0 0.0 0.0 1
Ga 9.7356 23.7485 31.098 0.0 0.0 0.0 1
O 24.1695 47.1473 30.4221 0.0 0.0 0.0 2
O 49.0875 0.221589 15.37242 0.0 0.0 0.0 0
Ga 23.1124 25.7516 27.3922 0.0 0.0 0.0 2
O 34.9824 2.20943 15.96206 0.0 0.0 0.0 0
O 3.81953 21.9197 26.1331 0.0 0.0 0.0 1
Ga 31.6495 32.1624 13.46463 0.0 0.0 0.0 0
O 16.3226 0.488234 19.48618 0.0 0.0 0.0 0
Ga 13.6406 38.3301 24.3807 0.0 0.0 0.0 2
O 43.8685 24.4468 21.9668 0.0 0.0 0.0 1
Ga 22.1437 22.1631 31.5493 0.0 0.0 0.0 1
O 46.3526 31.3314 30.5187 0.0 0.0 0.0 2
Ga 49.4135 46.8044 29.9372 0.0 0.0 0.0 2
O 21.4939 45.6987 15.68062 0.0 0.0 0.0 0
O 21.2498 41.1353 25.5015 0.0 0.0 0.0 2
O 39.1446 33.8466 25.7426 0.0 0.0 0.0 2
O 0.422823 48.8442 29.1848 0.0 0.0 0.0 2
O 7.40895 24.5764 14.33418 0.0 0.0 0.0 0
Ga 38.9247 49.4607 20.8024 0.0 0.0 0.0 2
O 49.976 43.5276 10.447734 0.0 0.0 0.0 0
O 49.5158 22.5593 22.4117 0.0 0.0 0.0 1
Ga 14.7156 9.26816 20.4861 0.0 0.0 0.0 1
Ga 14.0577 34.3814 15.5189 0.0 0.0 0.0 0
O 28.6889 31.3752 31.3431 0.0 0.0 0.0 2
O 30.724 46.5357 19.33764 0.0 0.0 0.0 0
Ga 34.3774 11.6238 19.64797 0.0 0.0 0.0 0
O 5.53062 44.849 32.3282 0.0 0.0 0.0 2
Ga 1.47306 36.2316 19.68596 0.0 0.0 0.0 0
O 42.1281 34.9852 26.7652 0.0 0.0 0.0 2
O 29.377 3.00309 14.49571 0.0 0.0 0.0 0
Ga 4.12677 13.9029 22.4629 0.0 0.0 0.0 1
O 14.8755 18.1514 27.2625 0.0 0.0 0.0 1
Ga 5.20135 30.4165 28.6062 0.0 0.0 0.0 2
O 2.75962 11.3475 12.49242 0.0 0.0 0.0 0
Ga 49.495 0.578278 28.9432 0.0 0.0 0.0 1
O 4.54526 32.0897 28.871 0.0 0.0 0.0 2
O 26.9733 15.1339 15.12611 0.0 0.0 0.0 0
Ga 30.8501 19.9401 27.6212 0.0 0.0 0.0 1
Ga 9.03227 45.2727 17.22528 0.0 0.0 0.0 0
O 37.8846 1.93945 30.9396 0.0 0.0 0.0 1
O 26.0558 26.3247 22.5362 0.0 0.0 0.0 2
O 23.9236 32.61 23.0342 0.0 0.0 0.0 2
Ga 42.8945 15.0972 17.2981 0.0 0.0 0.0 0
Ga 37.0037 12.4797 15.18382 0.0 0.0 0.0 0
O 39.0107 28.2071 31.2618 0.0 0.0 0.0 2
Ga 23.3832 46.3282 11.64849 0.0 0.0 0.0 0
O 37.9017 44.2053 12.51883 0.0 0.0 0.0 0
Ga 9.57774 12.3522 11.25899 0.0 0.0 0.0 0
Ga 37.0275 21.1955 26.7628 0.0 0.0 0.0 1
O 31.2334 16.5241 12.75805 0.0 0.0 0.0 0
Ga 44.7907 28.8653 22.4114 0.0 0.0 0.0 2
Ga 9.17935 23.5758 14.44616 0.0 0.0 0.0 0
Ga 45.1772 26.8367 15.50871 0.0 0.0 0.0 0
O 6.67891 35.9331 20.3113 0.0 0.0 0.0 2
Ga 5.08718 5.49457 33.6785 0.0 0.0 0.0 1
Ga 34.0355 15.0832 26.8128 0.0 0.0 0.0 1
O 13.1978 38.2176 18.88555 0.0 0.0 0.0 0
Ga 4.05187 43.4062 27.88 0.0 0.0 0.0 2
O 15.4804 44.3691 20.3963 0.0 0.0 0.0 2
Ga 2.11054 7.93839 14.68227 0.0 0.0 0.0 0
O 1.83846 21.8852 30.789 0.0 0.0 0.0 1
O 45.924 13.5287 27.833 0.0 0.0 0.0 1
Ga 19.943 38.2056 30.5319 0.0 0.0 0.0 2
O 2.63915 6.83167 22.0665 0.0 0.0 0.0 1
O 28.772 45.0414 15.20015 0.0 0.0 0.0 0
O 28.2762 20.8558 33.9905 0.0 0.0 0.0 1
O 49.0906 37.5073 13.68985 0.0 0.0 0.0 0
O 4.06618 25.3458 23.3558 0.0 0.0 0.0 2
Ga 44.6877 40.2495 31.3233 0.0 0.0 0.0 2
O 9.40912 22.6936 10.716368 0.0 0.0 0.0 0
O 31.3881 2.17997 31.2845 0.0 0.0 0.0 1
O 15.9852 42.8483 33.377 0.0 0.0 0.0 2
Ga 7.64847 37.1242 21.3786 0.0 0.0 0.0 2
O 31.5277 45.3894 34.1453 0.0 0.0 0.0 2
Ga 15.507 0.726323 12.39339 0.0 0.0 0.0 0
O 25.5177 29.1194 13.45872 0.0 0.0 0.0 0
Ga 28.6748 27.2879 33.3664 0.0 0.0 0.0 2
O 25.2512 6.87711 25.0481 0.0 0.0 0.0 1
O 15.4079 35.487 22.2591 0.0 0.0 0.0 2
O 20.2588 1.88095 27.4742 0.0 0.0 0.0 1
Ga 36.9711 7.2598 21.0764 0.0 0.0 0.0 1
O 30.1907 16.2676 22.1742 0.0 0.0 0.0 1
Ga 34.328 41.1248 33.3648 0.0 0.0 0.0 2
O 13.5913 3.97805 28.8778 0.0 0.0 0.0 1
Ga 12.0222 0.215137 18.18332 0.0 0.0 0.0 0
O 1.53364 28.7068 14.66811 0.0 0.0 0.0 0
O 3.69841 49.7941 13.79641 0.0 0.0 0.0 0
O 14.467 10.1566 30.4827 0.0 0.0 0.0 1
Ga 7.03007 8.2228 28.3242 0.0 0.0 0.0 1
O 5.72123 44.2299 14.60436 0.0 0.0 0.0 0
Ga 9.93986 3.50446 31.001 0.0 0.0 0.0 1
Ga 29.3079 35.9905 29.9923 0.0 0.0 0.0 2
O 31.1177 32.9408 26.7102 0.0 0.0 0.0 2
Ga 22.437 27.7001 24.5853 0.0 0.0 0.0 2
O 9.3858 30.4464 23.4973 0.0 0.0 0.0 2
Ga 48.0126 23.6278 13.11689 0.0 0.0 0.0 0
O 21.9064 41.5174 15.43782 0.0 0.0 0.0 0
O 43.8397 34.905 18.58974 0.0 0.0 0.0 0
Ga 24.8018 23.0128 12.79277 0.0 0.0 0.0 0
Ga 22.3166 31.8942 34.5545 0.0 0.0 0.0 2
O 39.205 40.0157 22.7823 0.0 0.0 0.0 2
O 31.7981 25.3511 18.40409 0.0 0.0 0.0 0
Ga 40.7808 39.0495 31.1229 0.0 0.0 0.0 2
Ga 49.5766 3.92125 21.1422 0.0 0.0 0.0 1
O 1.09452 4.73517 22.1 0.0 0.0 0.0 1
O 29.7745 49.806 23.515 0.0 0.0 0.0 2
O 21.3775 19.3026 16.78108 0.0 0.0 0.0 0
O 28.1982 34.5041 20.5253 0.0 0.0 0.0 2
O 18.4573 24.3933 10.428727 0.0 0.0 0.0 0
Ga 14.529 35.425 20.4883 0.0 0.0 0.0 2
O 17.6739 3.22655 26.2869 0.0 0.0 0.0 1
Ga 45.9378 48.635 12.34336 0.0 0.0 0.0 0
O 32.9112 0.546827 16.33747 0.0 0.0 0.0 0
Ga 35.6105 19.9649 20.4129 0.0 0.0 0.0 1
O 21.8542 44.9673 29.9975 0.0 0.0 0.0 2
O 1.93823 41.3717 21.6019 0.0 0.0 0.0 2
O 11.3006 11.2012 12.09548 0.0 0.0 0.0 0
Ga 36.2375 38.388 19.58931 0.0 0.0 0.0 0
O 40.1341 19.8595 10.10606 0.0 0.0 0.0 0
O 31.2291 1.63499 25.7607 0.0 0.0 0.0 1
Ga 35.0516 18.9463 33.3284 0.0 0.0 0.0 1
O 43.1027 46.0271 12.72342 0.0 0.0 0.0 0
O 48.4996 24.993 31.2971 0.0 0.0 0.0 1
O 43.2434 41.9578 24.8516 0.0 0.0 0.0 2
O 48.0382 20.4901 24.113 0.0 0.0 0.0 1
Ga 3.89411 45.3429 33.4119 0.0 0.0 0.0 2
O 9.88389 46.9514 17.76872 0.0 0.0 0.0 0
O 45.704 40.7343 17.35807 0.0 0.0 0.0 0
Ga 48.7198 38.721 19.75027 0.0 0.0 0.0 0
O 40.1111 20.5259 29.9991 0.0 0.0 0.0 1
Ga 25.3943 38.3463 20.9115 0.0 0.0 0.0 2
O 15.9455 35.236 25.2609 0.0 0.0 0.0 2
O 36.5969 18.3062 32.509 0.0 0.0 0.0 1
O 27.5683 34.5969 17.15392 0.0 0.0 0.0 0
Ga 12.128 13.0795 26.7799 0.0 0.0 0.0 1
Ga 9.35523 33.498 20.3806 0.0 0.0 0.0 2
Ga 32.2698 13.4324 18.76809 0.0 0.0 0.0 0
Ga 30.4742 1.79957 13.64477 0.0 0.0 0.0 0
O 30.6043 14.6228 19.50447 0.0 0.0 0.0 0
Ga 9.12076 44.2746 31.7845 0.0 0.0 0.0 2
O 3.35715 35.6143 32.5693 0.0 0.0 0.0 2
Ga 27.2946 41.3113 20.5245 0.0 0.0 0.0 2
O 19.1109 19.0381 18.37592 0.0 0.0 0.0 0
O 18.8795 14.8527 15.27028 0.0 0.0 0.0 0
O 19.8026 5.7367 10.479659 0.0 0.0 0.0 0
O 42.5293 8.13394 16.95817 0.0 0.0 0.0 0
O 28.6971 43.0008 11.2113 0.0 0.0 0.0 0
O 11.1864 13.9693 17.74935 0.0 0.0 0.0 0
O 22.9001 19.4928 19.15394 0.0 0.0 0.0 0
O 7.74547 33.137 16.70127 0.0 0.0 0.0 0
Ga 26.0421 46.1977 17.049 0.0 0.0 0.0 0
O 34.0025 32.5874 25.3525 0.0 0.0 0.0 2
O 25.6752 19.2176 22.8987 0.0 0.0 0.0 1
Ga 36.4039 8.96067 28.0381 0.0 0.0 0.0 1
O 23.8826 36.3936 24.0665 0.0 0.0 0.0 2
O 48.4453 0.648778 21.8343 0.0 0.0 0.0 1
O 0.142959 2.31368 20.2339 0.0 0.0 0.0 1
Ga 44.5412 41.4513 18.55113 0.0 0.0 0.0 0
O 47.4488 7.48615 19.57127 0.0 0.0 0.0 0
Ga 46.1849 1.5359 10.515213 0.0 0.0 0.0 0
O 23.4206 29.0527 23.5523 0.0 0.0 0.0 2
O 48.4626 9.5576 25.0667 0.0 0.0 0.0 1
Ga 25.6485 9.31204 13.20883 0.0 0.0 0.0 0
Ga 7.65474 31.732 12.46296 0.0 0.0 0.0 0
Ga 32.9712 26.8214 17.97983 0.0 0.0 0.0 0
O 32.6581 28.6466 17.71238 0.0 0.0 0.0 0
O 44.0227 38.3971 31.3436 0.0 0.0 0.0 2
Ga 48.9184 19.5438 20.6469 0.0 0.0 0.0 1
O 33.5487 32.9129 18.48345 0.0 0.0 0.0 0
Ga 27.9705 16.379 11.37584 0.0 0.0 0.0 0
O 30.7419 35.9842 31.2807 0.0 0.0 0.0 2
Ga 47.3627 15.3262 28.9666 0.0 0.0 0.0 1
Ga 27.5694 30.9016 17.46761 0.0 0.0 0.0 0
O 36.768 2.73297 33.7876 0.0 0.0 0.0 1
Ga 7.77411 27.5469 10.0867943 0.0 0.0 0.0 0
O 15.5479 46.0426 12.3217 0.0 0.0 0.0 0
O 49.5236 16.0915 26.51 0.0 0.0 0.0 1
Ga 1.55373 29.2567 33.4841 0.0 0.0 0.0 2
O 6.36322 47.7904 32.499 0.0 0.0 0.0 2
Ga 39.5733 33.1215 34.5241 0.0 0.0 0.0 2
O 40.2689 16.0411 19.17037 0.0 0.0 0.0 0
Ga 49.1894 36.6366 11.87955 0.0 0.0 0.0 0
Ga 30.9441 43.9405 23.2095 0.0 0.0 0.0 2
O 38.5491 21.43 17.09054 0.0 0.0 0.0 0
O 3.34914 19.4644 23.2106 0.0 0.0 0.0 1
O 19.9176 0.959075 15.67333 0.0 0.0 0.0 0
O 2.73929 8.16945 18.8515 0.0 0.0 0.0 0
O 46.4939 9.92239 17.93603 0.0 0.0 0.0 0
Ga 12.8416 7.12035 10.0863338 0.0 0.0 0.0 0
O 19.8664 24.1758 15.06537 0.0 0.0 0.0 0
Ga 39.9188 21.6275 18.50158 0.0 0.0 0.0 0
O 45.1324 2.54699 11.80954 0.0 0.0 0.0 0
O 43.933 19.5949 16.9054 0.0 0.0 0.0 0
Ga 16.5453 27.9224 32.897 0.0 0.0 0.0 2
O 18.8385 30.4841 34.9874 0.0 0.0 0.0 2
Ga 2.1644 29.8023 16.11764 0.0 0.0 0.0 0
O 28.9148 41.8122 26.6195 0.0 0.0 0.0 2
O 30.8467 16.7255 17.22964 0.0 0.0 0.0 0
O 20.3925 36.9752 25.4349 0.0 0.0 0.0 2
Ga 20.9318 40.4433 23.7444 0.0 0.0 0.0 2
O 5.73128 7.44345 27.3439 0.0 0.0 0.0 1
Ga 27.3601 39.2929 33.9472 0.0 0.0 0.0 2
Ga 46.2105 27.0984 25.0735 0.0 0.0 0.0 2
O 8.11792 13.7885 10.538697 0.0 0.0 0.0 0
O 49.6092 6.0623 24.0442 0.0 0.0 0.0 1
O 45.3894 7.41633 15.06286 0.0 0.0 0.0 0
Ga 20.5759 31.1058 32.4787 0.0 0.0 0.0 2
O 19.1407 31.6904 16.51668 0.0 0.0 0.0 0
Ga 32.7714 18.5848 10.764798 0.0 0.0 0.0 0
O 37.223 29.1022 22.5696 0.0 0.0 0.0 2
O 28.934 13.2573 17.78173 0.0 0.0 0.0 0
O 0.428775 8.41341 23.319 0.0 0.0 0.0 1
O 26.3488 26.0325 14.01542 0.0 0.0 0.0 0
Ga 17.4425 10.9949 13.01235 0.0 0.0 0.0 0
O 14.4121 7.00328 29.3543 0.0 0.0 0.0 1
Ga 36.1945 47.6301 31.5112 0.0 0.0 0.0 2
Ga 44.5276 5.19976 32.5426 0.0 0.0 0.0 1
O 10.8882 27.3242 16.14292 0.0 0.0 0.0 0
Ga 6.73177 0.782196 20.3945 0.0 0.0 0.0 1
O 43.7337 35.6644 22.2735 0.0 0.0 0.0 2
Ga 10.0458 26.588 12.42693 0.0 0.0 0.0 0
O 32.8192 49.7086 26.7833 0.0 0.0 0.0 2
Ga 36.469 5.56271 23.6504 0.0 0.0 0.0 1
O 6.69222 29.1824 23.648 0.0 0.0 0.0 2
Ga 35.7918 6.3094 10.853117 0.0 0.0 0.0 0
O 37.529 7.06944 29.891 0.0 0.0 0.0 1
O 38.1751 2.68412 10.396262 0.0 0.0 0.0 0
Ga 11.4269 32.9576 15.5388 0.0 0.0 0.0 0
O 41.3457 3.23545 19.78959 0.0 0.0 0.0 0
O 0.457913 20.0735 32.4305 0.0 0.0 0.0 1
O 33.1346 12.8341 20.5374 0.0 0.0 0.0 1
O 2.28544 49.098 16.27949 0.0 0.0 0.0 0
O 16.2047 8.51781 27.0787 0.0 0.0 0.0 1
O 10.606 13.7925 12.46969 0.0 0.0 0.0 0
Ga 24.6423 28.6798 30.0266 0.0 0.0 0.0 2
O 34.2879 24.4516 24.2985 0.0 0.0 0.0 1
Ga 36.1768 1.05103 19.43289 0.0 0.0 0.0 0
O 34.1324 44.8211 19.87405 0.0 0.0 0.0 0
O 23.2967 11.6605 29.0027 0.0 0.0 0.0 1
Ga 34.0151 27.4101 21.0741 0.0 0.0 0.0 2
Ga 27.672 10.4399 10.56969 0.0 0.0 0.0 0
O 12.6625 30.0631 33.2773 0.0 0.0 0.0 2
Ga 38.4082 2.19592 32.7722 0.0 0.0 0.0 1
O 41.3618 21.0348 32.8712 0.0 0.0 0.0 1
Ga 37.9765 1.26436 11.56546 0.0 0.0 0.0 0
O 33.8446 2.63729 11.0972 0.0 0.0 0.0 0
O 44.1557 9.96864 32.8909 0.0 0.0 0.0 1
Ga 12.2854 9.77091 15.43704 0.0 0.0 0.0 0
O 47.0527 16.4456 19.86331 0.0 0.0 0.0 0
Ga 30.3151 13.619 26.3099 0.0 0.0 0.0 1
Ga 0.603315 41.6026 32.6804 0.0 0.0 0.0 2
Ga 4.61579 33.4591 23.8206 0.0 0.0 0.0 2
O 1.17689 44.7459 12.33727 0.0 0.0 0.0 0
O 4.18172 29.4694 15.00347 0.0 0.0 0.0 0
O 40.6782 11.2558 32.149 0.0 0.0 0.0 1
Ga 0.708609 37.5013 22.4987 0.0 0.0 0.0 2
O 24.5973 40.726 13.73974 0.0 0.0 0.0 0
O 40.0029 24.3609 12.38653 0.0 0.0 0.0 0
Ga 5.03097 22.487 29.6362 0.0 0.0 0.0 1
O 49.6378 7.075 11.4431 0.0 0.0 0.0 0
O 13.5996 43.714 17.06615 0.0 0.0 0.0 0
Ga 49.2653 4.65147 33.6396 0.0 0.0 0.0 1
Ga 21.3434 3.88462 23.8001 0.0 0.0 0.0 1
O 4.50259 1.30914 16.55316 0.0 0.0 0.0 0
O 20.8404 37.3258 10.801791 0.0 0.0 0.0 0
Ga 12.5925 45.4752 10.0556328 0.0 0.0 0.0 0
O 42.3967 5.51425 26.7608 0.0 0.0 0.0 1
Ga 28.7978 30.0333 10.632855 0.0 0.0 0.0 0
O 36.3532 1.59752 28.7564 0.0 0.0 0.0 1
O 25.8641 8.54963 30.0575 0.0 0.0 0.0 1
Ga 5.44894 1.86982 24.7149 0.0 0.0 0.0 1
O 15.4449 20.209 15.59556 0.0 0.0 0.0 0
O 44.8782 7.76341 21.0012 0.0 0.0 0.0 1
O 4.51951 0.550904 11.06053 0.0 0.0 0.0 0
Ga 18.5157 14.9739 34.0795 0.0 0.0 0.0 1
O 12.5366 20.0055 32.111 0.0 0.0 0.0 1
O 2.26563 11.5414 28.588 0.0 0.0 0.0 1
Ga 46.2797 41.668 15.74745 0.0 0.0 0.0 0
Ga 32.5391 49.3462 29.8926 0.0 0.0 0.0 2
O 22.3619 19.9117 14.07476 0.0 0.0 0.0 0
O 43.2063 20.4095 25.4741 0.0 0.0 0.0 1
Ga 10.4013 9.66003 34.3353 0.0 0.0 0.0 1
O 5.26374 3.13692 10.92494 0.0 0.0 0.0 0
Ga 8.601 15.0966 16.15492 0.0 0.0 0.0 0
Ga 42.8313 23.7217 28.6703 0.0 0.0 0.0 1
O 49.8575 10.0181 12.36446 0.0 0.0 0.0 0
O 49.0315 27.0697 21.3281 0.0 0.0 0.0 2
O 36.5261 42.3072 17.55876 0.0 0.0 0.0 0
O 21.3676 15.1571 13.40329 0.0 0.0 0.0 0
Ga 13.8549 41.6813 33.9291 0.0 0.0 0.0 2
O 22.9073 16.2649 32.9885 0.0 0.0 0.0 1
Ga 8.37428 23.0701 18.69154 0.0 0.0 0.0 0
Ga 37.9167 5.00327 12.48106 0.0 0.0 0.0 0
O 0.580793 0.757891 34.395 0.0 0.0 0.0 1
Ga 46.849 34.417 20.1023 0.0 0.0 0.0 2
Ga 45.8292 21.6235 15.19623 0.0 0.0 0.0 0
O 20.8036 43.1735 17.56958 0.0 0.0 0.0 0
O 22.067 2.41578 25.2498 0.0 0.0 0.0 1
Ga 26.4056 37.0597 31.5645 0.0 0.0 0.0 2
O 2.98784 12.2059 22.7889 0.0 0.0 0.0 1
O 44.455 42.3212 22.4721 0.0 0.0 0.0 2
O 19.5341 5.23599 26.8813 0.0 0.0 0.0 1
O 3.95663 43.252 21.8153 0.0 0.0 0.0 2
Ga 27.824 2.77933 13.3245 0.0 0.0 0.0 0
O 49.9964 15.9836 10.490443 0.0 0.0 0.0 0
Ga 31.8121 39.0627 16.37384 0.0 0.0 0.0 0
Ga 42.1851 25.4803 15.25717 0.0 0.0 0.0 0
O 49.3126 21.5569 29.5848 0.0 0.0 0.0 1
Ga 41.0213 9.74431 11.7534 0.0 0.0 0.0 0
Ga 16.8995 26.7812 22.9844 0.0 0.0 0.0 2
O 0.0473814 7.27952 26.3046 0.0 0.0 0.0 1
O 14.8566 3.26117 19.22464 0.0 0.0 0.0 0
Ga 43.9586 22.3203 31.4749 0.0 0.0 0.0 1
Ga 17.6535 9.03571 28.1097 0.0 0.0 0.0 1
O 36.006 12.6689 19.68093 0.0 0.0 0.0 0
O 49.605 11.8467 31.1781 0.0 0.0 0.0 1
Ga 25.6387 30.2233 15.03213 0.0 0.0 0.0 0
O 8.98982 0.222316 14.3811 0.0 0.0 0.0 0
Ga 17.9128 19.6942 10.313272 0.0 0.0 0.0 0
O 3.04305 22.5088 16.73873 0.0 0.0 0.0 0
Ga 36.2929 21.2281 17.38614 0.0 0.0 0.0 0
O 17.4465 44.3804 12.16702 0.0 0.0 0.0 0
O 39.3477 30.0948 27.0055 0.0 0.0 0.0 2
Ga 35.4157 8.88857 23.2012 0.0 0.0 0.0 1
O 43.9944 12.2097 19.60816 0.0 0.0 0.0 0
O 39.5344 24.7601 21.8693 0.0 0.0 0.0 1
Ga 27.2526 38.2817 25.4741 0.0 0.0 0.0 2
O 27.5667 29.1974 21.0389 0.0 0.0 0.0 2
Ga 9.0493 26.696 15.96123 0.0 0.0 0.0 0
O 26.7253 40.8554 11.32458 0.0 0.0 0.0 0
Ga 18.7578 5.79542 12.09358 0.0 0.0 0.0 0
O 11.4036 34.2557 32.5145 0.0 0.0 0.0 2
Ga 32.6207 24.7803 22.613 0.0 0.0 0.0 1
O 29.6899 47.4044 13.73121 0.0 0.0 0.0 0
Ga 22.9723 36.654 30.2568 0.0 0.0 0.0 2
O 3.5177 7.23158 15.73743 0.0 0.0 0.0 0
Ga 21.7641 5.451 10.516481 0.0 0.0 0.0 0
Ga 0.398659 17.654 11.27322 0.0 0.0 0.0 0
O 25.0132 29.1196 26.1551 0.0 0.0 0.0 2
Ga 39.908 10.9579 33.8949 0.0 0.0 0.0 1
O 30.8899 1.88411 28.3021 0.0 0.0 0.0 1
Ga 45.7562 48.8911 33.9938 0.0 0.0 0.0 2
O 13.7942 25.7404 31.4522 0.0 0.0 0.0 2
O 9.96786 2.7024 21.4247 0.0 0.0 0.0 1
O 10.6952 49.3475 25.2851 0.0 0.0 0.0 2
O 41.036 29.528 21.5322 0.0 0.0 0.0 2
Ga 32.4725 45.3343 25.4683 0.0 0.0 0.0 2
O 13.6629 19.0624 29.491 0.0 0.0 0.0 1
O 7.87848 48.3557 24.2878 0.0 0.0 0.0 2
Ga 13.3184 30.2163 19.35531 0.0 0.0 0.0 0
O 10.6083 23.0514 13.39622 0.0 0.0 0.0 0
Ga 31.5168 19.1651 20.5441 0.0 0.0 0.0 1
O 18.5712 7.21788 28.6178 0.0 0.0 0.0 1
O 42.6521 13.0128 33.9454 0.0 0.0 0.0 1
Ga 19.8735 35.1643 29.8601 0.0 0.0 0.0 2
O 34.6319 20.326 30.5807 0.0 0.0 0.0 1
O 21.6406 14.9259 16.24104 0.0 0.0 0.0 0
Ga 21.538 15.9609 27.7868 0.0 0.0 0.0 1
O 43.5505 44.9473 15.14756 0.0 0.0 0.0 0
Ga 44.9085 30.6568 27.3277 0.0 0.0 0.0 2
O 26.8596 47.5147 10.347926 0.0 0.0 0.0 0
Ga 11.8772 36.0743 13.0967 0.0 0.0 0.0 0
O 42.2825 43.115 13.17184 0.0 0.0 0.0 0
O 20.7869 14.9414 31.5853 0.0 0.0 0.0 1
Ga 10.4312 47.595 11.6156 0.0 0.0 0.0 0
O 5.47899 42.8659 12.00303 0.0 0.0 0.0 0
Ga 4.78311 37.9287 20.919 0.0 0.0 0.0 2
O 2.93102 7.74604 27.1818 0.0 0.0 0.0 1
Ga 31.6978 37.4724 31.7278 0.0 0.0 0.0 2
O 7.61705 21.6147 34.0752 0.0 0.0 0.0 1
O 35.5353 36.9544 11.4792 0.0 0.0 0.0 0
O 13.7601 40.4033 24.4421 0.0 0.0 0.0 2
Ga 39.543 36.2625 29.1751 0.0 0.0 0.0 2
O 49.2286 8.33235 32.476 0.0 0.0 0.0 1
Ga 33.102 4.38793 13.71235 0.0 0.0 0.0 0
Ga 22.9664 5.41289 29.2077 0.0 0.0 0.0 1
Ga 20.1374 44.6572 23.091 0.0 0.0 0.0 2
O 46.0312 11.1409 26.3291 0.0 0.0 0.0 1
Ga 7.11891 26.2911 13.13592 0.0 0.0 0.0 0
O 45.251 47.5182 13.84856 0.0 0.0 0.0 0
O 17.7085 0.846445 23.4281 0.0 0.0 0.0 1
Ga 42.2803 14.8451 29.9895 0.0 0.0 0.0 1
O 40.3952 31.2026 31.5056 0.0 0.0 0.0 2
Ga 4.79825 36.4882 33.6315 0.0 0.0 0.0 2
O 35.1194 49.0078 28.6411 0.0 0.0 0.0 2
O 10.023 2.04359 26.7397 0.0 0.0 0.0 1
O 27.4728 25.3962 11.5427 0.0 0.0 0.0 0
O 14.5544 42.0552 30.0126 0.0 0.0 0.0 2
Ga 11.0216 37.8443 15.39738 0.0 0.0 0.0 0
O 13.874 43.6065 24.8479 0.0 0.0 0.0 2
O 9.64634 25.8159 21.9888 0.0 0.0 0.0 2
Ga 27.6243 24.6215 13.37665 0.0 0.0 0.0 0
O 7.64296 11.4393 33.7217 0.0 0.0 0.0 1
Ga 40.8335 12.5247 13.19919 0.0 0.0 0.0 0
O 5.31488 45.7828 21.5265 0.0 0.0 0.0 2
Ga 8.04629 33.0043 28.339 0.0 0.0 0.0 2
Ga 39.8029 5.27676 15.94415 0.0 0.0 0.0 0
O 23.2572 16.7904 27.163 0.0 0.0 0.0 1
O 23.7484 26.5207 23.9438 0.0 0.0 0.0 2
O 26.5694 39.8103 21.0972 0.0 0.0 0.0 2
O 44.9937 35.4816 11.31404 0.0 0.0 0.0 0
Ga 1.20911 10.9183 30.9474 0.0 0.0 0.0 1
O 44.374 29.64 30.8383 0.0 0.0 0.0 2
Ga 31.2672 43.1653 13.44543 0.0 0.0 0.0 0
O 43.5405 36.7787 13.79881 0.0 0.0 0.0 0
Ga 12.6048 47.4624 15.2576 0.0 0.0 0.0 0
Ga 12.1009 16.1639 31.8085 0.0 0.0 0.0 1
O 20.2755 34.5119 15.47361 0.0 0.0 0.0 0
Ga 30.0747 22.5536 12.4236 0.0 0.0 0.0 0
O 1.26978 24.9791 16.61756 0.0 0.0 0.0 0
Ga 34.6385 26.8698 15.22055 0.0 0.0 0.0 0
Ga 49.3082 9.84051 28.2056 0.0 0.0 0.0 1
O 29.4264 38.0503 25.7852 0.0 0.0 0.0 2
Ga 44.3054 31.557 24.0521 0.0 0.0 0.0 2
O 44.6331 25.8206 34.4307 0.0 0.0 0.0 2
Ga 8.74843 16.5742 23.7421 0.0 0.0 0.0 1
O 20.286 36.8109 17.0285 0.0 0.0 0.0 0
Ga 9.7383 28.1005 30.1184 0.0 0.0 0.0 2
O 11.0393 46.4088 34.6312 0.0 0.0 0.0 2
Ga 9.52853 10.8021 19.1716 0.0 0.0 0.0 0
O 38.5658 33.8774 20.0678 0.0 0.0 0.0 2
O 29.0209 21.8279 13.99009 0.0 0.0 0.0 0
O 45.4184 13.4746 34.5122 0.0 0.0 0.0 1
O 14.9575 47.9551 19.80409 0.0 0.0 0.0 0
O 22.6403 37.819 18.49785 0.0 0.0 0.0 0
O 25.5868 16.1468 22.5041 0.0 0.0 0.0 1
Ga 49.1416 7.74907 24.7478 0.0 0.0 0.0 1
O 8.19137 46.4568 20.4728 0.0 0.0 0.0 2
Ga 44.7308 31.3578 31.6854 0.0 0.0 0.0 2
O 44.1666 45.2222 18.03348 0.0 0.0 0.0 0
O 17.4043 27.9942 28.2895 0.0 0.0 0.0 2
Ga 0.490667 38.7232 14.17124 0.0 0.0 0.0 0
O 18.8126 20.9424 16.35981 0.0 0.0 0.0 0
Ga 7.57561 4.82607 23.8656 0.0 0.0 0.0 1
Ga 46.1526 42.122 21.5186 0.0 0.0 0.0 2
O 19.6843 18.9565 24.994 0.0 0.0 0.0 1
Ga 35.0834 13.1774 12.85334 0.0 0.0 0.0 0
O 25.3687 48.4234 20.4392 0.0 0.0 0.0 2
O 43.4537 5.40709 16.0547 0.0 0.0 0.0 0
Ga 21.7207 1.27492 31.935 0.0 0.0 0.0 1
O 15.507 49.1819 22.1686 0.0 0.0 0.0 2
O 35.4312 4.6278 28.8671 0.0 0.0 0.0 1
O 2.33351 37.7855 28.461 0.0 0.0 0.0 2
Ga 19.9442 15.7818 16.91562 0.0 0.0 0.0 0
O 47.843 1.37402 24.627 0.0 0.0 0.0 1
Ga 26.7938 12.1713 20.8653 0.0 0.0 0.0 1
O 18.3072 14.5398 24.8718 0.0 0.0 0.0 1
Ga 0.824165 8.40072 11.99658 0.0 0.0 0.0 0
O 19.7007 15.3894 28.6645 0.0 0.0 0.0 1
Ga 12.7844 32.3759 24.2929 0.0 0.0 0.0 2
Ga 18.5564 7.76255 32.1816 0.0 0.0 0.0 1
O 4.32885 30.6619 21.8534 0.0 0.0 0.0 2
O 45.0355 35.3566 16.05615 0.0 0.0 0.0 0
Ga 12.0157 0.651688 12.19532 0.0 0.0 0.0 0
O 30.8757 44.7108 17.08525 0.0 0.0 0.0 0
O 4.62173 38.3473 14.39208 0.0 0.0 0.0 0
O 41.8438 43.0836 33.6008 0.0 0.0 0.0 2
Ga 0.257135 24.5352 25.3911 0.0 0.0 0.0 1
O 35.6403 12.5867 28.8496 0.0 0.0 0.0 1
O 14.4501 45.1738 32.4695 0.0 0.0 0.0 2
O 16.4274 44.4172 25.9512 0.0 0.0 0.0 2
O 25.5107 11.4555 30.7982 0.0 0.0 0.0 1
O 48.6266 49.495 27.1697 0.0 0.0 0.0 2
O 29.793 35.4737 17.97887 0.0 0.0 0.0 0
Ga 24.333 17.5358 16.05908 0.0 0.0 0.0 0
Ga 9.76996 28.8202 19.45854 0.0 0.0 0.0 0
O 13.3863 33.6402 20.3534 0.0 0.0 0.0 2
O 6.74024 19.7406 15.1813 0.0 0.0 0.0 0
O 37.4668 1.92611 15.2175 0.0 0.0 0.0 0
Ga 15.355 21.9172 30.9774 0.0 0.0 0.0 1
O 32.3945 30.332 34.2577 0.0 0.0 0.0 2
O 29.8852 49.1356 27.0936 0.0 0.0 0.0 2
O 18.4975 9.66407 26.5182 0.0 0.0 0.0 1
Ga 23.0887 20.545 12.46653 0.0 0.0 0.0 0
Ga 24.5009 38.2656 27.3747 0.0 0.0 0.0 2
O 35.2628 28.3112 16.1046 0.0 0.0 0.0 0
Ga 15.5057 17.1033 28.6535 0.0 0.0 0.0 1
O 36.1377 3.47416 26.1427 0.0 0.0 0.0 1
Ga 21.7663 29.8535 22.9237 0.0 0.0 0.0 2
O 21.1646 25.7794 31.3939 0.0 0.0 0.0 2
Ga 19.576 46.3423 15.22358 0.0 0.0 0.0 0
Ga 26.3425 12.088 29.2147 0.0 0.0 0.0 1
O 15.3272 1.35814 16.85896 0.0 0.0 0.0 0
O 18.9914 0.31611 11.89238 0.0 0.0 0.0 0
Ga 9.32548 45.8125 29.0505 0.0 0.0 0.0 2
O 22.856 29.2766 10.660222 0.0 0.0 0.0 0
O 29.0851 3.86497 25.1039 0.0 0.0 0.0 1
Ga 45.6017 33.8189 28.0668 0.0 0.0 0.0 2
O 42.6156 31.3809 23.1255 0.0 0.0 0.0 2
Ga 34.5702 41.8954 13.67549 0.0 0.0 0.0 0
O 42.5366 18.0183 26.9754 0.0 0.0 0.0 1
Ga 31.4155 42.9707 16.63301 0.0 0.0 0.0 0
O 34.4602 48.1411 13.11113 0.0 0.0 0.0 0
O 39.8856 26.2556 19.43692 0.0 0.0 0.0 0
Ga 36.0843 36.8042 13.45435 0.0 0.0 0.0 0
O 1.92749 46.7127 24.2259 0.0 0.0 0.0 2
O 40.6596 1.48237 10.556234 0.0 0.0 0.0 0
Ga 34.9162 15.3396 15.21248 0.0 0.0 0.0 0
O 4.41983 43.9641 29.7711 0.0 0.0 0.0 2
Ga 16.3088 27.6632 29.7365 0.0 0.0 0.0 2
O 47.737 8.39246 22.2844 0.0 0.0 0.0 1
O 45.6804 29.1861 28.353 0.0 0.0 0.0 2
O 22.4543 1.29875 17.96552 0.0 0.0 0.0 0
Ga 4.51778 28.8718 26.2438 0.0 0.0 0.0 2
O 22.8159 26.3512 10.764537 0.0 0.0 0.0 0
O 24.4492 2.85658 10.396119 0.0 0.0 0.0 0
Ga 45.1905 0.819461 16.72937 0.0 0.0 0.0 0
Ga 5.41845 25.3282 34.6944 0.0 0.0 0.0 2
O 24.4868 1.09471 34.5249 0.0 0.0 0.0 1
O 15.4877 25.5169 23.597 0.0 0.0 0.0 2
Ga 49.0405 38.4704 30.7524 0.0 0.0 0.0 2
Ga 20.8604 30.0133 13.06406 0.0 0.0 0.0 0
O 46.6322 20.8685 29.2895 0.0 0.0 0.0 1
O 24.44 31.5504 14.55551 0.0 0.0 0.0 0
Ga 8.49289 1.30732 12.90356 0.0 0.0 0.0 0
Ga 42.9676 37.5003 32.4798 0.0 0.0 0.0 2
Ga 15.4793 47.0637 28.6476 0.0 0.0 0.0 2
O 39.5365 3.43652 26.3149 0.0 0.0 0.0 1
Ga 40.7511 36.2236 20.381 0.0 0.0 0.0 2
O 18.9724 24.1247 20.4138 0.0 0.0 0.0 1
Ga 43.9302 36.2464 17.29174 0.0 0.0 0.0 0
O 39.2856 21.4132 11.8485 0.0 0.0 0.0 0
O 7.93126 21.0384 29.3237 0.0 0.0 0.0 1
Ga 26.079 0.0574129 14.464 0.0 0.0 0.0 0
Ga 37.7278 40.8762 17.4351 0.0 0.0 0.0 0
Ga 8.9749 24.5276 10.41679 0.0 0.0 0.0 0
O 21.2889 17.6468 12.20501 0.0 0.0 0.0 0
Ga 24.0242 32.0229 12.84724 0.0 0.0 0.0 0
O 33.9876 13.5366 33.2917 0.0 0.0 0.0 1
O 35.5193 23.7802 21.238 0.0 0.0 0.0 1
Ga 27.0204 46.2724 24.2161 0.0 0.0 0.0 2
O 8.4918 43.9851 18.42136 0.0 0.0 0.0 0
O 23.8543 5.52193 10.585152 0.0 0.0 0.0 0
O 38.6763 49.6315 10.893277 0.0 0.0 0.0 0
O 4.0838 23.942 30.5297 0.0 0.0 0.0 1
O 16.1433 26.1179 11.40768 0.0 0.0 0.0 0
O 35.7591 47.4985 19.49416 0.0 0.0 0.0 0
Ga 40.5797 35.0836 25.6463 0.0 0.0 0.0 2
O 48.6263 6.24819 34.5986 0.0 0.0 0.0 1
Ga 33.698 39.1223 24.6749 0.0 0.0 0.0 2
O 31.4238 19.5882 18.67731 0.0 0.0 0.0 0
Ga 43.5355 41.793 13.83415 0.0 0.0 0.0 0
O 3.06644 28.0733 27.1558 0.0 0.0 0.0 2
Ga 28.9595 31.4651 14.13436 0.0 0.0 0.0 0
O 36.765 20.4682 22.0658 0.0 0.0 0.0 1
Ga 7.66155 26.1147 32.1027 0.0 0.0 0.0 2
O 17.8659 47.7335 24.3859 0.0 0.0 0.0 2
O 36.8395 41.401 13.41329 0.0 0.0 0.0 0
O 42.784 49.3969 25.8088 0.0 0.0 0.0 2
O 20.2901 15.2698 34.6308 0.0 0.0 0.0 1
O 19.4942 29.3089 14.36192 0.0 0.0 0.0 0
Ga 29.4135 47.8529 34.772 0.0 0.0 0.0 2
O 0.479655 28.8561 26.967 0.0 0.0 0.0 2
Ga 7.27606 37.6316 24.398 0.0 0.0 0.0 2
O 31.575 20.978 24.1782 0.0 0.0 0.0 1
O 1.57626 10.0372 32.6012 0.0 0.0 0.0 1
Ga 23.5617 49.549 12.10738 0.0 0.0 0.0 0
Ga 32.7787 43.5053 28.1066 0.0 0.0 0.0 2
O 20.0982 48.0536 14.83375 0.0 0.0 0.0 0
O 24.6577 37.533 30.9946 0.0 0.0 0.0 2
Ga 37.0603 28.3626 16.15564 0.0 0.0 0.0 0
O 23.3108 35.0432 29.4874 0.0 0.0 0.0 2
Ga 39.1307 37.913 10.810959 0.0 0.0 0.0 0
O 44.0657 43.8034 29.2124 0.0 0.0 0.0 2
Ga 11.8227 41.2645 14.59367 0.0 0.0 0.0 0
O 42.2454 44.3433 26.1812 0.0 0.0 0.0 2
Ga 22.0333 48.2533 32.9332 0.0 0.0 0.0 2
Ga 26.4823 23.5865 24.6564 0.0 0.0 0.0 1
Ga 10.9612 30.3965 21.854 0.0 0.0 0.0 2
O 23.5133 4.38073 23.3821 0.0 0.0 0.0 1
Ga 0.640891 27.5744 20.3724 0.0 0.0 0.0 2
O 45.3456 46.0697 27.6817 0.0 0.0 0.0 2
O 6.6585 36.9359 34.4359 0.0 0.0 0.0 2
O 43.0102 7.03582 23.8203 0.0 0.0 0.0 1
Ga 0.210101 10.7233 18.8877 0.0 0.0 0.0 0
Ga 16.5918 48.3934 20.5941 0.0 0.0 0.0 2
Ga 4.04877 43.1925 24.113 0.0 0.0 0.0 2
O 29.0975 4.5065 19.21473 0.0 0.0 0.0 0
Ga 20.2675 7.6092 29.2635 0.0 0.0 0.0 1
O 14.749 10.9887 10.918506 0.0 0.0 0.0 0
Ga 30.3362 10.3539 26.0143 0.0 0.0 0.0 1
O 11.1489 35.6629 25.9296 0.0 0.0 0.0 2
Ga 45.1188 33.4655 15.47778 0.0 0.0 0.0 0
O 6.25975 1.18108 26.2014 0.0 0.0 0.0 1
O 4.31425 22.4993 23.5641 0.0 0.0 0.0 1
O 38.1012 27.3186 15.15867 0.0 0.0 0.0 0
Ga 21.9185 10.4015 29.4747 0.0 0.0 0.0 1
Ga 48.3574 32.0211 14.85004 0.0 0.0 0.0 0
O 31.4002 40.6147 34.6345 0.0 0.0 0.0 2
Ga 42.0063 28.0143 17.07484 0.0 0.0 0.0 0
Ga 34.586 15.7291 11.20442 0.0 0.0 0.0 0
O 12.7491 30.0992 28.8372 0.0 0.0 0.0 2
Ga 29.4925 41.1362 23.2658 0.0 0.0 0.0 2
Ga 24.0069 44.6073 19.15174 0.0 0.0 0.0 0
O 46.1681 15.1522 15.04023 0.0 0.0 0.0 0
O 11.4544 38.4646 21.441 0.0 0.0 0.0 2
O 35.9238 39.0971 29.9997 0.0 0.0 0.0 2
Ga 6.97018 37.5264 27.8193 0.0 0.0 0.0 2
Ga 32.3918 40.8044 22.2041 0.0 0.0 0.0 2
O 9.94589 14.0601 15.44929 0.0 0.0 0.0 0
O 45.3009 27.9185 18.92576 0.0 0.0 0.0 0
Ga 4.62943 9.9306 25.0202 0.0 0.0 0.0 1
Ga 18.5301 2.25475 12.39059 0.0 0.0 0.0 0
O 32.005 21.0363 34.102 0.0 0.0 0.0 1
Ga 15.8891 0.727164 23.02 0.0 0.0 0.0 1
Ga 27.2122 14.0905 18.28535 0.0 0.0 0.0 0
O 35.0487 37.3033 20.75 0.0 0.0 0.0 2
O 2.34333 30.8668 20.4361 0.0 0.0 0.0 2
O 40.5719 5.94767 14.3427 0.0 0.0 0.0 0
O 33.3131 25.9993 33.452 0.0 0.0 0.0 2
Ga 28.3432 48.2203 26.8365 0.0 0.0 0.0 2
Ga 33.2655 20.4058 23.9389 0.0 0.0 0.0 1
O 5.94032 26.053 19.69063 0.0 0.0 0.0 0
O 10.0027 16.4163 34.9836 0.0 0.0 0.0 1
O 32.4108 49.6059 19.00338 0.0 0.0 0.0 0
Ga 45.931 22.5466 28.8051 0.0 0.0 0.0 1
O 42.0899 8.54098 31.4751 0.0 0.0 0.0 1
O 25.9051 0.348729 28.2122 0.0 0.0 0.0 1
O 36.0313 20.8819 25.125 0.0 0.0 0.0 1
O 34.6372 30.926 32.8262 0.0 0.0 0.0 2
Ga 28.6975 3.15287 17.93438 0.0 0.0 0.0 0
O 16.1876 7.97643 20.6571 0.0 0.0 0.0 1
Ga 24.6572 9.71703 10.346067 0.0 0.0 0.0 0
O 47.0848 4.63934 12.31273 0.0 0.0 0.0 0
Ga 14.4799 47.0331 18.171 0.0 0.0 0.0 0
O 46.0134 41.0023 25.4517 0.0 0.0 0.0 2
Ga 9.38886 46.713 14.48641 0.0 0.0 0.0 0
O 25.4778 6.13909 21.2025 0.0 0.0 0.0 1
O 48.2283 40.1608 30.481 0.0 0.0 0.0 2
Ga 3.20925 29.2875 21.043 0.0 0.0 0.0 2
O 3.85837 4.14144 22.4452 0.0 0.0 0.0 1
O 11.2113 29.3909 17.66554 0.0 0.0 0.0 0
Ga 31.6879 7.22786 18.77403 0.0 0.0 0.0 0
O 28.6504 13.1191 13.21081 0.0 0.0 0.0 0
O 22.2068 48.707 34.8074 0.0 0.0 0.0 2
Ga 13.8132 29.5155 14.7067 0.0 0.0 0.0 0
O 5.97625 10.8249 31.6615 0.0 0.0 0.0 1
Ga 27.0476 21.2961 29.1085 0.0 0.0 0.0 1
Ga 18.0414 1.21819 19.85396 0.0 0.0 0.0 0
Ga 3.46501 10.8641 14.24295 0.0 0.0 0.0 0
O 12.5387 44.4214 30.2388 0.0 0.0 0.0 2
Ga 17.1317 24.3183 20.5982 0.0 0.0 0.0 1
O 34.8622 42.7102 33.9878 0.0 0.0 0.0 2
O 12.0848 17.6576 27.3055 0.0 0.0 0.0 1
Ga 8.55422 38.7371 30.2506 0.0 0.0 0.0 2
O 21.2273 24.6941 12.1161 0.0 0.0 0.0 0
O 41.613 10.8422 18.29371 0.0 0.0 0.0 0
O 18.4104 33.1885 10.819437 0.0 0.0 0.0 0
O 3.37213 8.75606 29.5741 0.0 0.0 0.0 1
O 33.6506 5.54601 21.9527 0.0 0.0 0.0 1
O 38.6364 21.9366 26.0001 0.0 0.0 0.0 1
Ga 41.7119 6.08293 28.5172 0.0 0.0 0.0 1
Ga 4.66971 5.61981 15.18484 0.0 0.0 0.0 0
Ga 7.31709 16.3101 12.86002 0.0 0.0 0.0 0
O 27.2892 40.9901 34.599 0.0 0.0 0.0 2
O 47.0331 44.4389 29.8016 0.0 0.0 0.0 2
O 16.672 25.8539 32.6042 0.0 0.0 0.0 2
Ga 41.7065 37.8599 28.1457 0.0 0.0 0.0 2
O 9.6369 18.8217 10.560628 0.0 0.0 0.0 0
Ga 19.7088 9.39996 11.12735 0.0 0.0 0.0 0
O 39.9916 14.5354 10.275053 0.0 0.0 0.0 0
Ga 42.169 26.4629 30.9748 0.0 0.0 0.0 2
O 4.0757 16.3594 13.32333 0.0 0.0 0.0 0
O 16.1921 25.3633 14.42478 0.0 0.0 0.0 0
O 17.0102 28.2444 13.65825 0.0 0.0 0.0 0
Ga 47.1586 43.4267 19.00156 0.0 0.0 0.0 0
O 8.06943 1.63509 19.31263 0.0 0.0 0.0 0
Ga 27.0294 9.86636 27.0581 0.0 0.0 0.0 1
O 9.24802 22.888 27.1034 0.0 0.0 0.0 1
Ga 5.52833 3.78785 12.77448 0.0 0.0 0.0 0
Ga 31.2297 46.3788 13.23233 0.0 0.0 0.0 0
O 8.35536 42.9004 15.85975 0.0 0.0 0.0 0
O 22.5927 32.1586 11.36452 0.0 0.0 0.0 0
Ga 16.3018 39.7527 15.37966 0.0 0.0 0.0 0
Ga 20.9717 5.05018 20.566 0.0 0.0 0.0 1
O 4.75581 18.023 25.9971 0.0 0.0 0.0 1
O 32.8101 35.9805 15.64793 0.0 0.0 0.0 0
Ga 12.2261 13.1584 32.3426 0.0 0.0 0.0 1
O 32.3418 42.635 32.6885 0.0 0.0 0.0 2
Ga 27.9952 15.3708 26.7171 0.0 0.0 0.0 1
O 49.2256 31.7982 27.2616 0.0 0.0 0.0 2
O 17.187 40.3835 33.8817 0.0 0.0 0.0 2
Ga 9.03865 1.6987 33.7229 0.0 0.0 0.0 1
O 15.7316 16.0284 24.9727 0.0 0.0 0.0 1
O 39.7705 45.2528 21.1988 0.0 0.0 0.0 2
Ga 9.55047 43.2253 14.46585 0.0 0.0 0.0 0
O 6.91394 40.6875 32.9735 0.0 0.0 0.0 2
O 15.8738 13.0718 34.774 0.0 0.0 0.0 1
O 44.478 27.0628 10.00895928 0.0 0.0 0.0 0
Ga 45.7055 42.9939 29.7101 0.0 0.0 0.0 2
O 16.935 13.4968 26.9515 0.0 0.0 0.0 1
Ga 31.0847 3.86292 10.75435 0.0 0.0 0.0 0
Ga 8.34522 29.5515 27.5282 0.0 0.0 0.0 2
O 17.2293 42.9485 28.1772 0.0 0.0 0.0 2
O 34.4851 17.4699 15.27662 0.0 0.0 0.0 0
Ga 49.3741 17.7767 30.0525 0.0 0.0 0.0 1
O 38.7432 47.2805 18.9524 0.0 0.0 0.0 0
O 9.62859 14.6533 20.3242 0.0 0.0 0.0 1
Ga 43.3715 8.88838 20.5591 0.0 0.0 0.0 1
O 14.8763 7.4479 13.06419 0.0 0.0 0.0 0
Ga 16.9056 21.374 15.91117 0.0 0.0 0.0 0
Ga 11.2628 40.2713 17.50804 0.0 0.0 0.0 0
O 21.5957 3.32773 20.0344 0.0 0.0 0.0 1
Ga 40.398 40.0837 34.2361 0.0 0.0 0.0 2
O 31.569 38.0011 33.4512 0.0 0.0 0.0 2
O 46.234 23.5086 23.449 0.0 0.0 0.0 1
O 35.782 7.20409 27.601 0.0 0.0 0.0 1
Ga 43.5468 40.8322 23.285 0.0 0.0 0.0 2
O 16.2725 34.2272 20.0579 0.0 0.0 0.0 2
Ga 18.1796 24.8371 14.29782 0.0 0.0 0.0 0
Ga 6.47851 29.1364 33.088 0.0 0.0 0.0 2
O 48.0727 0.200842 18.50585 0.0 0.0 0.0 0
Ga 33.9783 3.96018 22.8851 0.0 0.0 0.0 1
O 1.04658 23.8167 11.32542 0.0 0.0 0.0 0
Ga 13.0689 33.5413 12.51632 0.0 0.0 0.0 0
O 38.2533 16.9833 31.2589 0.0 0.0 0.0 1
O 29.8583 35.8432 15.21993 0.0 0.0 0.0 0
Ga 6.78115 11.2874 12.95374 0.0 0.0 0.0 0
O 1.51402 28.5566 22.0759 0.0 0.0 0.0 2
O 46.3804 19.7394 11.92911 0.0 0.0 0.0 0
Ga 16.1193 1.79378 15.06737 0.0 0.0 0.0 0
Ga 29.557 23.8459 23.8525 0.0 0.0 0.0 1
O 48.0968 33.2004 32.5643 0.0 0.0 0.0 2
O 30.7824 38.7191 30.6101 0.0 0.0 0.0 2
Ga 10.4535 28.6881 24.332 0.0 0.0 0.0 2
Ga 26.8266 28.5681 26.0902 0.0 0.0 0.0 2
O 49.5872 27.6221 31.3685 0.0 0.0 0.0 2
Ga 15.4746 29.0634 17.61469 0.0 0.0 0.0 0
O 34.7748 33.333 10.740128 0.0 0.0 0.0 0
O 48.2605 25.0752 16.44555 0.0 0.0 0.0 0
O 11.4169 21.8117 22.2965 0.0 0.0 0.0 1
Ga 28.9864 19.1506 33.5633 0.0 0.0 0.0 1
Ga 25.8582 2.02535 17.18896 0.0 0.0 0.0 0
Ga 38.2922 22.9362 15.99766 0.0 0.0 0.0 0
O 17.7655 40.7843 10.88109 0.0 0.0 0.0 0
O 25.1736 47.8352 17.62188 0.0 0.0 0.0 0
O 2.09914 37.5796 23.9611 0.0 0.0 0.0 2
O 31.4736 18.1698 15.0411 0.0 0.0 0.0 0
O 43.7295 33.523 34.9205 0.0 0.0 0.0 2
O 25.668 17.0578 28.3541 0.0 0.0 0.0 1
O 31.8272 13.607 13.59513 0.0 0.0 0.0 0
Ga 15.234 49.6762 33.6077 0.0 0.0 0.0 2
Ga 37.5201 27.6502 23.6806 0.0 0.0 0.0 2
Ga 13.2322 5.12231 22.8305 0.0 0.0 0.0 1
O 37.6612 46.7596 28.1091 0.0 0.0 0.0 2
O 31.2356 1.99675 11.79748 0.0 0.0 0.0 0
Ga 16.1516 34.856 18.00371 0.0 0.0 0.0 0
O 45.6683 25.1969 11.57246 0.0 0.0 0.0 0
O 23.9286 20.0629 24.6812 0.0 0.0 0.0 1
Ga 15.0774 6.97535 32.1853 0.0 0.0 0.0 1
O 40.0831 37.2678 21.7973 0.0 0.0 0.0 2
Ga 12.4611 45.7657 21.2923 0.0 0.0 0.0 2
O 27.8853 49.3681 15.07193 0.0 0.0 0.0 0
O 0.679607 25.8453 13.92191 0.0 0.0 0.0 0
Ga 38.6525 37.7181 26.3524 0.0 0.0 0.0 2
Ga 28.9323 11.6102 16.80446 0.0 0.0 0.0 0
O 24.2969 15.473 16.26528 0.0 0.0 0.0 0
Ga 26.7234 13.4963 34.6539 0.0 0.0 0.0 1
O 15.1328 20.9814 26.4194 0.0 0.0 0.0 1
O 24.3468 4.56358 25.9411 0.0 0.0 0.0 1
Ga 45.4398 11.117 18.9918 0.0 0.0 0.0 0
Ga 4.41717 13.8733 19.09229 0.0 0.0 0.0 0
Ga 7.58685 2.77912 18.00226 0.0 0.0 0.0 0
O 43.6126 2.26649 33.0717 0.0 0.0 0.0 1
Ga 34.3394 4.03866 25.9481 0.0 0.0 0.0 1
Ga 32.9222 14.2177 34.7974 0.0 0.0 0.0 1
O 28.175 1.61754 26.8165 0.0 0.0 0.0 1
O 0.0916056 19.2932 12.73667 0.0 0.0 0.0 0
O 10.1486 41.7091 11.06672 0.0 0.0 0.0 0
O 0.0151977 25.1501 23.5745 0.0 0.0 0.0 2
O 46.3378 25.0934 26.1402 0.0 0.0 0.0 2
Ga 32.5301 15.3412 13.40076 0.0 0.0 0.0 0
O 37.2383 22.8161 33.9787 0.0 0.0 0.0 1
Ga 36.9677 30.7757 23.1617 0.0 0.0 0.0 2
O 47.274 34.839 14.07694 0.0 0.0 0.0 0
O 45.6981 22.2762 10.416042 0.0 0.0 0.0 0
Ga 17.7203 20.0257 19.12453 0.0 0.0 0.0 0
O 46.258 28.4975 23.7276 0.0 0.0 0.0 2
Ga 37.7548 35.6352 19.2273 0.0 0.0 0.0 0
O 20.9026 44.5068 21.3797 0.0 0.0 0.0 2
O 8.45669 1.31487 24.3043 0.0 0.0 0.0 1
O 38.6044 0.447326 33.472 0.0 0.0 0.0 1
O 30.268 23.3883 29.3954 0.0 0.0 0.0 1
Ga 9.34219 47.0749 34.4104 0.0 0.0 0.0 2
O 39.7833 22.3765 14.9342 0.0 0.0 0.0 0
O 42.4908 33.9861 14.88172 0.0 0.0 0.0 0
O 9.40684 26.0222 34.2228 0.0 0.0 0.0 2
Ga 7.19648 42.1668 11.6996 0.0 0.0 0.0 0
O 49.2944 41.8698 23.3202 0.0 0.0 0.0 2
Ga 6.37726 47.1575 20.8235 0.0 0.0 0.0 2
O 38.2967 9.3983 24.8662 0.0 0.0 0.0 1
O 18.1687 35.908 30.1769 0.0 0.0 0.0 2
Ga 19.344 38.4578 33.6575 0.0 0.0 0.0 2
O 20.9849 21.5388 20.5108 0.0 0.0 0.0 1
Ga 44.4852 1.45669 13.26925 0.0 0.0 0.0 0
O 32.6204 11.8074 15.17219 0.0 0.0 0.0 0
Ga 21.8075 3.03119 18.15192 0.0 0.0 0.0 0
Ga 25.4126 23.4138 27.665 0.0 0.0 0.0 1
Ga 15.3099 11.384 23.2142 0.0 0.0 0.0 1
Ga 12.9492 28.1695 28.9167 0.0 0.0 0.0 2
Ga 35.4843 14.5387 33.8624 0.0 0.0 0.0 1
O 29.097 21.3195 16.7987 0.0 0.0 0.0 0
Ga 8.16342 5.45228 11.00982 0.0 0.0 0.0 0
O 6.4723 25.8793 30.8076 0.0 0.0 0.0 2
O 47.3241 27.2389 33.685 0.0 0.0 0.0 2
Ga 14.6185 20.1252 28.1391 0.0 0.0 0.0 1
O 23.4695 27.2167 13.23805 0.0 0.0 0.0 0
Ga 24.747 2.51403 29.206 0.0 0.0 0.0 1
O 3.46583 45.5712 27.4369 0.0 0.0 0.0 2
Ga 7.17069 45.0187 26.8647 0.0 0.0 0.0 2
O 27.1756 24.3006 20.0193 0.0 0.0 0.0 1
O 5.53431 27.8349 17.1926 0.0 0.0 0.0 0
O 7.04665 30.3799 15.61046 0.0 0.0 0.0 0
O 25.2639 38.2165 19.00381 0.0 0.0 0.0 0
Ga 48.5388 26.8022 17.40485 0.0 0.0 0.0 0
O 1.75082 20.1472 17.78804 0.0 0.0 0.0 0
O 39.2024 24.2329 27.9667 0.0 0.0 0.0 1
O 16.8403 49.5853 34.5521 0.0 0.0 0.0 2
Ga 3.70617 46.527 22.5884 0.0 0.0 0.0 2
O 16.8977 1.79924 13.23428 0.0 0.0 0.0 0
Ga 41.655 9.19378 27.7803 0.0 0.0 0.0 1
O 41.1072 32.4036 28.5204 0.0 0.0 0.0 2
Ga 29.4986 34.898 13.5452 0.0 0.0 0.0 0
O 11.2697 45.3813 22.9587 0.0 0.0 0.0 2
O 46.3181 17.0767 13.33247 0.0 0.0 0.0 0
Ga 31.1869 35.6089 16.48204 0.0 0.0 0.0 0
O 33.4293 22.6618 28.8864 0.0 0.0 0.0 1
Ga 17.0901 35.2023 15.04814 0.0 0.0 0.0 0
O 37.5917 49.7969 19.53141 0.0 0.0 0.0 0
O 27.7133 24.4483 23.6409 0.0 0.0 0.0 1
O 5.82347 11.071 11.42759 0.0 0.0 0.0 0
O 26.596 38.6566 12.68402 0.0 0.0 0.0 0
O 12.0338 29.6275 14.54083 0.0 0.0 0.0 0
O 39.4754 8.4485 15.1951 0.0 0.0 0.0 0
Ga 22.6374 40.0597 14.18051 0.0 0.0 0.0 0
O 23.9249 19.0647 33.461 0.0 0.0 0.0 1
O 3.17182 17.9312 31.2872 0.0 0.0 0.0 1
O 35.1327 9.94737 18.69409 0.0 0.0 0.0 0
O 8.9009 27.8642 23.8273 0.0 0.0 0.0 2
Ga 40.4085 29.4767 30.8737 0.0 0.0 0.0 2
Ga 4.15949 43.9373 15.93084 0.0 0.0 0.0 0
O 39.1862 1.13967 12.95284 0.0 0.0 0.0 0
O 48.8601 1.59146 12.65131 0.0 0.0 0.0 0
Ga 25.3749 22.8317 32.6562 0.0 0.0 0.0 1
Ga 9.93316 42.0753 21.8447 0.0 0.0 0.0 2
O 1.36328 33.2313 31.5424 0.0 0.0 0.0 2
O 2.37099 14.6087 23.0521 0.0 0.0 0.0 1
Ga 14.5013 8.14404 27.8323 0.0 0.0 0.0 1
Ga 32.156 17.221 33.4901 0.0 0.0 0.0 1
O 6.81577 35.7408 31.8717 0.0 0.0 0.0 2
O 27.0212 26.9123 25.2924 0.0 0.0 0.0 2
O 5.98529 40.1081 30.0558 0.0 0.0 0.0 2
Ga 8.26669 1.42395 26.1249 0.0 0.0 0.0 1
O 43.0344 10.6093 27.9109 0.0 0.0 0.0 1
O 0.459882 39.4 23.3203 0.0 0.0 0.0 2
O 10.6731 34.55 21.1389 0.0 0.0 0.0 2
O 11.5647 14.7731 27.6567 0.0 0.0 0.0 1
O 47.0877 27.2988 15.65407 0.0 0.0 0.0 0
O 3.7762 43.6018 34.4221 0.0 0.0 0.0 2
Ga 27.6361 13.0211 24.2009 0.0 0.0 0.0 1
O 25.0729 36.5389 16.98146 0.0 0.0 0.0 0
O 33.724 44.4836 26.7569 0.0 0.0 0.0 2
Ga 39.1112 47.8131 28.3827 0.0 0.0 0.0 2
Ga 49.9426 33.5923 26.95 0.0 0.0 0.0 2
O 37.2339 9.55561 12.85986 0.0 0.0 0.0 0
O 35.53 32.4789 30.557 0.0 0.0 0.0 2
Ga 30.9795 3.4153 25.0377 0.0 0.0 0.0 1
O 15.6049 29.6005 26.545 0.0 0.0 0.0 2
Ga 41.357 46.412 32.4471 0.0 0.0 0.0 2
O 12.6483 14.4312 30.9129 0.0 0.0 0.0 1
O 16.2674 5.08213 14.58466 0.0 0.0 0.0 0
O 4.74294 5.16488 20.2979 0.0 0.0 0.0 1
Ga 2.78358 7.23741 32.5092 0.0 0.0 0.0 1
O 17.9706 47.9057 26.8384 0.0 0.0 0.0 2
Ga 25.3072 5.94378 26.7771 0.0 0.0 0.0 1
O 49.9871 35.1136 12.75897 0.0 0.0 0.0 0
Ga 2.81863 13.922 15.60057 0.0 0.0 0.0 0
O 39.6681 4.82197 11.69722 0.0 0.0 0.0 0
O 28.2191 44.3745 27.0228 0.0 0.0 0.0 2
O 1.26653 5.28899 27.8755 0.0 0.0 0.0 1
O 1.87407 1.75628 15.23632 0.0 0.0 0.0 0
O 11.4759 16.5946 16.53068 0.0 0.0 0.0 0
O 0.270848 16.7239 23.7025 0.0 0.0 0.0 1
Ga 43.1093 12.5979 15.53275 0.0 0.0 0.0 0
Ga 3.71129 34.429 18.47548 0.0 0.0 0.0 0
O 0.0155234 13.843 17.76042 0.0 0.0 0.0 0
O 29.5259 44.3906 21.8345 0.0 0.0 0.0 2
O 21.394 2.32653 22.5785 0.0 0.0 0.0 1
O 15.7291 10.0031 13.36597 0.0 0.0 0.0 0
O 15.0473 20.9549 23.2399 0.0 0.0 0.0 1
Ga 3.14676 23.6868 26.8649 0.0 0.0 0.0 1
O 42.379 43.0895 20.6713 0.0 0.0 0.0 2
O 8.14943 43.7278 25.7028 0.0 0.0 0.0 2
Ga 47.7028 0.519426 14.02789 0.0 0.0 0.0 0
Ga 25.7791 5.09312 19.25454 0.0 0.0 0.0 0
Ga 5.73599 11.9096 33.8779 0.0 0.0 0.0 1
O 45.9908 5.02249 19.66362 0.0 0.0 0.0 0
Ga 35.12 12.2679 10.093444 0.0 0.0 0.0 0
Ga 1.62759 5.65487 29.678 0.0 0.0 0.0 1
O 41.4436 31.7349 13.06206 0.0 0.0 0.0 0
O 43.145 28.2437 23.6209 0.0 0.0 0.0 2
Ga 35.1095 33.1302 23.5242 0.0 0.0 0.0 2
O 2.74283 15.4346 11.18699 0.0 0.0 0.0 0
Ga 12.0463 0.3242 34.8662 0.0 0.0 0.0 1
O 34.7986 48.4993 23.1715 0.0 0.0 0.0 2
O 7.13916 46.0142 17.04568 0.0 0.0 0.0 0
O 49.5441 35.0487 28.3601 0.0 0.0 0.0 2
Ga 16.7695 39.4757 30.3575 0.0 0.0 0.0 2
O 27.5605 48.7632 34.1358 0.0 0.0 0.0 2
Ga 4.92586 47.9956 31.1591 0.0 0.0 0.0 2
O 15.2284 48.3866 16.96915 0.0 0.0 0.0 0
Ga 21.2163 49.8937 18.81296 0.0 0.0 0.0 0
O 34.1195 41.921 19.47433 0.0 0.0 0.0 0
O 37.7297 1.39595 26.1741 0.0 0.0 0.0 1
Ga 7.37061 22.2818 21.7124 0.0 0.0 0.0 1
Ga 25.7512 34.3539 11.09525 0.0 0.0 0.0 0
O 45.6799 15.3129 29.9375 0.0 0.0 0.0 1
O 43.9004 26.9235 31.6827 0.0 0.0 0.0 2
O 30.967 12.0313 25.5471 0.0 0.0 0.0 1
Ga 42.6333 47.8811 12.94499 0.0 0.0 0.0 0
O 21.5144 22.0274 15.67942 0.0 0.0 0.0 0
O 45.1085 12.1254 11.4966 0.0 0.0 0.0 0
O 39.5215 27.1932 23.0624 0.0 0.0 0.0 2
Ga 3.86513 9.06376 20.1522 0.0 0.0 0.0 1
O 20.2171 3.18841 16.92883 0.0 0.0 0.0 0
Ga 27.5511 3.76798 29.5813 0.0 0.0 0.0 1
Ga 0.104216 7.93571 30.785 0.0 0.0 0.0 1
O 17.3729 21.1288 13.95024 0.0 0.0 0.0 0
Ga 7.17851 27.6841 24.7332 0.0 0.0 0.0 2
Ga 33.3509 42.2726 25.1231 0.0 0.0 0.0 2
O 2.17908 38.2497 33.9487 0.0 0.0 0.0 2
Ga 25.0473 48.4314 24.9856 0.0 0.0 0.0 2
Ga 36.4602 3.15021 29.9324 0.0 0.0 0.0 1
O 40.5453 31.6905 15.8241 0.0 0.0 0.0 0
O 22.5546 7.5304 14.0842 0.0 0.0 0.0 0
Ga 30.7929 41.9859 33.6013 0.0 0.0 0.0 2
O 31.4217 21.7507 27.0955 0.0 0.0 0.0 1
O 39.7151 1.42538 18.08001 0.0 0.0 0.0 0
Ga 25.7403 40.4503 15.21076 0.0 0.0 0.0 0
O 37.7192 45.5763 34.8931 0.0 0.0 0.0 2
O 42.8579 7.83283 28.6866 0.0 0.0 0.0 1
O 39.2288 14.1358 32.4137 0.0 0.0 0.0 1
Ga 36.9872 21.5975 32.596 0.0 0.0 0.0 1
O 25.5132 35.2532 19.19745 0.0 0.0 0.0 0
Ga 14.7142 40.8712 10.560443 0.0 0.0 0.0 0
O 42.3595 46.1756 33.9891 0.0 0.0 0.0 2
Ga 9.79246 18.7932 25.7913 0.0 0.0 0.0 1
O 8.1641 32.5437 24.3932 0.0 0.0 0.0 2
Ga 42.3997 0.991031 26.9061 0.0 0.0 0.0 1
O 15.3637 35.7104 15.57151 0.0 0.0 0.0 0
O 47.9448 25.5662 13.18669 0.0 0.0 0.0 0
Ga 39.4497 24.6533 32.3039 0.0 0.0 0.0 1
O 7.09739 10.0807 20.2523 0.0 0.0 0.0 1
O 7.73152 40.506 12.23884 0.0 0.0 0.0 0
Ga 26.3172 41.0033 26.8627 0.0 0.0 0.0 2
O 45.6386 12.3463 23.4596 0.0 0.0 0.0 1
Ga 26.658 41.8688 17.59035 0.0 0.0 0.0 0
Ga 1.23826 4.18214 12.05474 0.0 0.0 0.0 0
O 41.656 34.4834 24.066 0.0 0.0 0.0 2
O 39.2122 11.4938 13.55296 0.0 0.0 0.0 0
Ga 15.7603 34.5604 33.794 0.0 0.0 0.0 2
O 14.1437 27.6243 14.55497 0.0 0.0 0.0 0
Ga 45.7562 21.8305 19.82165 0.0 0.0 0.0 0
Ga 11.7068 28.7391 34.4383 0.0 0.0 0.0 2
Ga 48.2123 3.33987 12.94791 0.0 0.0 0.0 0
O 18.0935 32.2873 19.09564 0.0 0.0 0.0 0
Ga 0.914423 11.7947 12.2503 0.0 0.0 0.0 0
Ga 47.3079 20.5523 25.9126 0.0 0.0 0.0 1
O 9.10061 17.9268 22.4576 0.0 0.0 0.0 1
O 7.36963 4.81663 19.44526 0.0 0.0 0.0 0
O 1.62989 4.51371 13.90327 0.0 0.0 0.0 0
O 19.9379 44.9218 11.08354 0.0 0.0 0.0 0
Ga 2.38382 22.5381 24.0129 0.0 0.0 0.0 1
O 30.9301 47.7309 22.4633 0.0 0.0 0.0 2
O 21.0786 18.1233 34.7261 0.0 0.0 0.0 1
Ga 28.7899 17.7659 21.5637 0.0 0.0 0.0 1
O 8.06923 38.4646 14.28017 0.0 0.0 0.0 0
O 46.84 0.585952 34.6932 0.0 0.0 0.0 1
Ga 22.3649 17.9896 33.4623 0.0 0.0 0.0 1
Ga 36.3111 31.1687 17.19341 0.0 0.0 0.0 0
O 2.17337 45.8248 21.6579 0.0 0.0 0.0 2
Ga 28.4892 28.3697 16.62013 0.0 0.0 0.0 0
O 37.5789 38.3982 32.1884 0.0 0.0 0.0 2
O 39.6114 16.2711 14.57425 0.0 0.0 0.0 0
O 21.8945 9.92346 15.70098 0.0 0.0 0.0 0
Ga 41.2507 4.71305 12.92641 0.0 0.0 0.0 0
Ga 2.61172 24.203 10.310139 0.0 0.0 0.0 0
O 20.6405 28.0925 12.09571 0.0 0.0 0.0 0
Ga 5.96245 20.6285 19.58483 0.0 0.0 0.0 0
O 48.4022 21.3392 34.8051 0.0 0.0 0.0 1
O 4.9974 25.4472 15.54952 0.0 0.0 0.0 0
Ga 46.224 8.64637 13.69467 0.0 0.0 0.0 0
O 1.16864 30.5065 29.5688 0.0 0.0 0.0 2
Ga 15.71 42.4477 31.4576 0.0 0.0 0.0 2
O 41.8515 26.7879 21.9516 0.0 0.0 0.0 2
O 20.1008 42.0667 20.3236 0.0 0.0 0.0 2
Ga 41.421 7.15062 18.45304 0.0 0.0 0.0 0
O 7.96165 14.3455 34.1529 0.0 0.0 0.0 1
O 22.3267 0.827894 11.21714 0.0 0.0 0.0 0
O 36.7484 12.4663 13.2553 0.0 0.0 0.0 0
O 20.1191 48.7009 23.0796 0.0 0.0 0.0 2
O 16.4345 46.6764 31.5376 0.0 0.0 0.0 2
Ga 31.1159 39.9996 12.9641 0.0 0.0 0.0 0
Ga 34.731 46.1847 18.68705 0.0 0.0 0.0 0
O 15.5857 9.6895 22.458 0.0 0.0 0.0 1
O 10.4253 38.9557 18.5918 0.0 0.0 0.0 0
Ga 19.1812 12.571 18.12109 0.0 0.0 0.0 0
O 23.6921 45.5874 20.8633 0.0 0.0 0.0 2
O 27.7503 13.0998 30.2336 0.0 0.0 0.0 1
Ga 15.5132 28.9759 24.8876 0.0 0.0 0.0 2
O 16.6302 15.2215 14.30515 0.0 0.0 0.0 0
O 46.701 4.53509 29.9667 0.0 0.0 0.0 1
Ga 35.3836 46.7017 24.2626 0.0 0.0 0.0 2
O 15.9559 7.79133 24.4375 0.0 0.0 0.0 1
O 23.1063 49.6982 29.4067 0.0 0.0 0.0 2
Ga 47.6399 31.9153 26.1371 0.0 0.0 0.0 2
Ga 14.611 29.9648 33.075 0.0 0.0 0.0 2
Ga 27.0519 49.4789 29.3358 0.0 0.0 0.0 2
O 35.8341 48.3921 33.2586 0.0 0.0 0.0 2
O 21.2073 1.8533 30.2432 0.0 0.0 0.0 1
O 22.844 36.0213 15.25298 0.0 0.0 0.0 0
O 46.6658 45.7782 22.1787 0.0 0.0 0.0 2
Ga 36.3738 0.744267 16.36532 0.0 0.0 0.0 0
O 29.8693 14.7656 15.38224 0.0 0.0 0.0 0
O 28.4545 18.9195 18.19385 0.0 0.0 0.0 0
O 25.8157 6.50392 15.84131 0.0 0.0 0.0 0
O 25.806 12.8549 24.3221 0.0 0.0 0.0 1
O 38.6486 44.3389 26.4525 0.0 0.0 0.0 2
O 28.7477 2.83007 30.7198 0.0 0.0 0.0 1
O 47.9272 13.2791 33.1431 0.0 0.0 0.0 1
O 1.70136 4.12281 30.7173 0.0 0.0 0.0 1
O 16.5399 23.3742 30.5173 0.0 0.0 0.0 1
Ga 8.12895 28.8896 22.3621 0.0 0.0 0.0 2
O 33.341 47.869 34.0142 0.0 0.0 0.0 2
O 29.0951 46.8552 25.9166 0.0 0.0 0.0 2
Ga 25.2811 25.3074 30.0459 0.0 0.0 0.0 2
O 18.1051 16.4401 20.0519 0.0 0.0 0.0 1
O 25.8497 49.1062 23.3792 0.0 0.0 0.0 2
O 46.2057 12.6445 18.18846 0.0 0.0 0.0 0
O 28.577 17.9639 15.5194 0.0 0.0 0.0 0
Ga 0.0108191 46.649 16.16321 0.0 0.0 0.0 0
Ga 2.34341 42.3689 18.42411 0.0 0.0 0.0 0
Ga 47.9435 11.6066 21.1842 0.0 0.0 0.0 1
O 19.5102 40.0144 32.5634 0.0 0.0 0.0 2
O 30.6713 30.3948 28.7435 0.0 0.0 0.0 2
O 35.0889 35.2093 23.0753 0.0 0.0 0.0 2
Ga 26.4617 33.3586 14.29491 0.0 0.0 0.0 0
Ga 41.5763 26.3651 20.2222 0.0 0.0 0.0 2
O 10.0628 34.2405 15.69814 0.0 0.0 0.0 0
O 38.1807 28.0548 25.3348 0.0 0.0 0.0 2
Ga 41.4438 48.4722 30.1451 0.0 0.0 0.0 2
O 13.9666 25.7661 19.84346 0.0 0.0 0.0 0
O 40.2216 42.305 25.267 0.0 0.0 0.0 2
O 49.8777 14.6912 32.3648 0.0 0.0 0.0 1
O 23.4077 47.411 24.7509 0.0 0.0 0.0 2
Ga 23.8408 5.11163 12.46056 0.0 0.0 0.0 0
O 36.0893 7.44837 14.77178 0.0 0.0 0.0 0
Ga 46.1107 47.0123 31.6955 0.0 0.0 0.0 2
Ga 47.5801 44.1747 12.81102 0.0 0.0 0.0 0
O 37.1111 39.2261 21.0495 0.0 0.0 0.0 2
O 6.2755 27.5694 14.49766 0.0 0.0 0.0 0
O 34.1134 38.9576 26.5727 0.0 0.0 0.0 2
Ga 18.9544 43.5563 18.21123 0.0 0.0 0.0 0
Ga 21.1623 25.5864 15.8225 0.0 0.0 0.0 0
O 17.6949 20.2937 22.4383 0.0 0.0 0.0 1
Ga 0.743044 20.2804 26.2694 0.0 0.0 0.0 1
O 29.2499 9.57634 11.39519 0.0 0.0 0.0 0
Ga 40.1218 32.9962 19.18869 0.0 0.0 0.0 0
O 34.8547 3.62922 13.77901 0.0 0.0 0.0 0
Ga 34.205 46.8823 11.79176 0.0 0.0 0.0 0
Ga 43.7039 36.6506 11.88065 0.0 0.0 0.0 0
Ga 34.6627 8.80827 20.0205 0.0 0.0 0.0 1
O 41.0747 3.16105 13.97232 0.0 0.0 0.0 0
Ga 14.9357 5.06695 29.7329 0.0 0.0 0.0 1
O 48.7076 3.16782 17.51026 0.0 0.0 0.0 0
Ga 21.2416 26.6486 34.7748 0.0 0.0 0.0 2
O 5.78396 18.9235 30.3669 0.0 0.0 0.0 1
O 31.9097 9.06238 17.96756 0.0 0.0 0.0 0
Ga 39.5193 5.21329 23.2874 0.0 0.0 0.0 1
O 25.8425 31.0537 16.85448 0.0 0.0 0.0 0
Ga 1.0917 15.1893 31.0896 0.0 0.0 0.0 1
O 8.63647 10.5123 10.647665 0.0 0.0 0.0 0
O 20.9978 15.5293 25.9047 0.0 0.0 0.0 1
Ga 6.51007 24.5907 16.12123 0.0 0.0 0.0 0
O 3.82125 10.966 19.54512 0.0 0.0 0.0 0
Ga 44.316 8.31122 33.7718 0.0 0.0 0.0 1
O 20.8431 8.34131 22.407 0.0 0.0 0.0 1
Ga 42.1262 17.7142 22.3468 0.0 0.0 0.0 1
Ga 6.05107 33.7125 16.51802 0.0 0.0 0.0 0
O 0.289888 42.879 34.1124 0.0 0.0 0.0 2
Ga 19.7368 12.7237 21.345 0.0 0.0 0.0 1
O 48.7894 3.02802 34.3405 0.0 0.0 0.0 1
Ga 31.2482 35.7286 21.2324 0.0 0.0 0.0 2
Ga 9.69609 7.38191 14.009 0.0 0.0 0.0 0
O 22.8714 33.5068 13.84445 0.0 0.0 0.0 0
O 11.426 41.498 25.7346 0.0 0.0 0.0 2
O 45.3325 18.0277 31.9305 0.0 0.0 0.0 1
O 29.1837 25.453 33.5272 0.0 0.0 0.0 2
O 21.904 41.698 22.5068 0.0 0.0 0.0 2
Ga 27.2532 30.296 22.6036 0.0 0.0 0.0 2
O 26.8741 27.4387 27.6899 0.0 0.0 0.0 2
Ga 14.5544 44.9167 26.0524 0.0 0.0 0.0 2
O 47.4067 23.5151 28.1524 0.0 0.0 0.0 1
Ga 40.6017 47.1254 15.32143 0.0 0.0 0.0 0
O 11.1508 11.3827 18.34618 0.0 0.0 0.0 0
Ga 23.4475 40.4525 22.6173 0.0 0.0 0.0 2
O 27.7337 29.1765 18.1621 0.0 0.0 0.0 0
Ga 39.4646 30.6438 16.97804 0.0 0.0 0.0 0
O 16.6283 29.9814 32.9804 0.0 0.0 0.0 2
Ga 22.1919 12.1347 19.4171 0.0 0.0 0.0 0
O 41.8295 45.3734 30.907 0.0 0.0 0.0 2
Ga 17.3661 33.8901 25.2599 0.0 0.0 0.0 2
Ga 38.9044 25.6095 11.6768 0.0 0.0 0.0 0
O 20.1381 37.1663 22.5532 0.0 0.0 0.0 2
Ga 27.1873 7.49728 29.2741 0.0 0.0 0.0 1
O 36.0634 4.70107 16.59092 0.0 0.0 0.0 0
O 0.324966 30.7372 32.5505 0.0 0.0 0.0 2
Ga 19.5442 17.627 19.65998 0.0 0.0 0.0 0
Ga 23.6531 20.9406 28.8842 0.0 0.0 0.0 1
O 36.8154 49.3184 30.7623 0.0 0.0 0.0 2
O 12.128 33.0648 10.891829 0.0 0.0 0.0 0
Ga 19.5644 19.1344 16.42995 0.0 0.0 0.0 0
O 7.99732 43.398 13.0577 0.0 0.0 0.0 0
Ga 10.2221 25.5502 20.1175 0.0 0.0 0.0 2
O 49.2723 4.85396 19.45055 0.0 0.0 0.0 0
O 45.3721 30.7409 22.6861 0.0 0.0 0.0 2
Ga 18.6942 49.4026 24.0303 0.0 0.0 0.0 2
O 0.307412 12.0473 14.37402 0.0 0.0 0.0 0
Ga 7.63074 21.8998 10.64769 0.0 0.0 0.0 0
O 18.8927 2.40737 10.375949 0.0 0.0 0.0 0
Ga 3.95348 26.8849 10.878221 0.0 0.0 0.0 0
O 3.79246 41.2998 23.5465 0.0 0.0 0.0 2
Ga 49.096 35.766 18.07914 0.0 0.0 0.0 0
Ga 38.7653 7.90195 16.91132 0.0 0.0 0.0 0
O 21.955 29.7746 27.8606 0.0 0.0 0.0 2
Ga 49.996 48.0083 27.1398 0.0 0.0 0.0 2
O 35.4313 20.7454 33.2863 0.0 0.0 0.0 1
Ga 3.42085 12.7137 29.5463 0.0 0.0 0.0 1
O 28.8646 30.1169 23.5381 0.0 0.0 0.0 2
O 14.8817 7.2858 15.91603 0.0 0.0 0.0 0
Ga 17.1844 46.0664 23.327 0.0 0.0 0.0 2
O 19.9367 31.7581 13.77356 0.0 0.0 0.0 0
O 23.7318 32.6763 27.51 0.0 0.0 0.0 2
O 44.5681 3.88898 27.8862 0.0 0.0 0.0 1
Ga 16.0631 36.8828 26.0506 0.0 0.0 0.0 2
O 4.77492 18.941 19.31724 0.0 0.0 0.0 0
Ga 31.9542 32.871 23.176 0.0 0.0 0.0 2
O 32.9025 35.0999 27.311 0.0 0.0 0.0 2
O 39.7665 29.3406 13.73425 0.0 0.0 0.0 0
O 41.2612 19.0528 12.57477 0.0 0.0 0.0 0
Ga 19.9628 17.1633 25.5464 0.0 0.0 0.0 1
O 5.32339 34.6852 14.97832 0.0 0.0 0.0 0
Ga 43.4103 26.1342 22.9023 0.0 0.0 0.0 2
O 48.0399 18.9837 30.984 0.0 0.0 0.0 1
O 7.1492 41.4363 18.4528 0.0 0.0 0.0 0
Ga 1.70336 39.8174 20.2729 0.0 0.0 0.0 2
O 15.6055 16.2211 19.91963 0.0 0.0 0.0 0
O 15.5219 18.2565 22.4962 0.0 0.0 0.0 1
O 5.16398 25.6629 10.0911846 0.0 0.0 0.0 0
O 24.0025 6.46911 30.8237 0.0 0.0 0.0 1
Ga 17.5058 13.4208 23.5237 0.0 0.0 0.0 1
O 32.128 2.82139 14.41256 0.0 0.0 0.0 0
O 36.7544 47.2445 16.63719 0.0 0.0 0.0 0
Ga 5.68295 6.85495 25.5106 0.0 0.0 0.0 1
O 28.5465 25.0307 30.5713 0.0 0.0 0.0 2
Ga 29.1617 44.853 11.47391 0.0 0.0 0.0 0
O 47.7451 7.46324 16.74635 0.0 0.0 0.0 0
O 24.8606 48.9257 13.71802 0.0 0.0 0.0 0
O 12.3365 26.1706 22.2944 0.0 0.0 0.0 2
O 24.5552 28.3304 18.41855 0.0 0.0 0.0 0
Ga 34.979 48.186 21.1483 0.0 0.0 0.0 2
O 10.8587 25.5122 10.852049 0.0 0.0 0.0 0
Ga 19.9197 25.2787 27.8471 0.0 0.0 0.0 2
Ga 25.3937 4.97526 34.1235 0.0 0.0 0.0 1
O 21.9935 19.3843 26.3438 0.0 0.0 0.0 1
O 31.5144 23.755 23.7392 0.0 0.0 0.0 1
O 41.7735 31.6877 26.0836 0.0 0.0 0.0 2
Ga 23.8706 35.1565 13.74178 0.0 0.0 0.0 0
O 0.146409 7.20545 20.7378 0.0 0.0 0.0 1
O 42.2579 22.2123 22.7404 0.0 0.0 0.0 1
Ga 36.8698 11.5348 34.7744 0.0 0.0 0.0 1
Ga 15.7661 8.63192 14.78189 0.0 0.0 0.0 0
O 19.1314 29.9712 29.6924 0.0 0.0 0.0 2
Ga 26.1458 47.7146 13.21632 0.0 0.0 0.0 0
O 26.2676 37.9472 34.8638 0.0 0.0 0.0 2
Ga 6.48343 4.35276 26.3834 0.0 0.0 0.0 1
O 17.6011 23.7352 12.88558 0.0 0.0 0.0 0
O 6.98674 42.9804 30.5118 0.0 0.0 0.0 2
Ga 40.5996 33.9982 22.5474 0.0 0.0 0.0 2
O 26.4224 11.4669 19.10412 0.0 0.0 0.0 0
O 24.8756 22.2669 34.4748 0.0 0.0 0.0 1
Ga 47.4989 3.46403 16.14183 0.0 0.0 0.0 0
O 18.8379 28.6118 17.69746 0.0 0.0 0.0 0
O 11.4843 16.9631 13.64252 0.0 0.0 0.0 0
O 28.2622 12.5814 33.7706 0.0 0.0 0.0 1
Ga 7.97659 47.4508 31.5627 0.0 0.0 0.0 2
Ga 13.38 29.7579 11.57708 0.0 0.0 0.0 0
O 46.1961 21.9709 26.0034 0.0 0.0 0.0 1
Ga 18.1944 48.8086 28.467 0.0 0.0 0.0 2
O 2.30265 20.4388 20.5938 0.0 0.0 0.0 1
O 48.4194 28.3054 13.71897 0.0 0.0 0.0 0
Ga 9.16199 48.6541 17.94621 0.0 0.0 0.0 0
Ga 28.0457 30.8335 27.9174 0.0 0.0 0.0 2
Ga 23.0457 40.6817 26.3274 0.0 0.0 0.0 2
O 18.4321 38.7224 19.56494 0.0 0.0 0.0 0
O 43.0151 5.73092 29.9357 0.0 0.0 0.0 1
O 37.9443 19.0127 24.1902 0.0 0.0 0.0 1
O 27.9473 34.1676 23.2701 0.0 0.0 0.0 2
Ga 31.8678 29.2289 19.5701 0.0 0.0 0.0 0
O 47.3829 2.50899 14.50757 0.0 0.0 0.0 0
Ga 16.1424 32.0783 23.513 0.0 0.0 0.0 2
Ga 1.44908 27.2811 31.0821 0.0 0.0 0.0 2
O 37.6161 16.5965 22.6721 0.0 0.0 0.0 1
O 48.6483 23.2497 25.1414 0.0 0.0 0.0 1
O 9.22199 22.8148 21.6116 0.0 0.0 0.0 1
Ga 22.6308 12.0548 34.8367 0.0 0.0 0.0 1
O 44.0883 17.8846 14.43448 0.0 0.0 0.0 0
O 25.5794 13.5873 21.3774 0.0 0.0 0.0 1
Ga 49.0159 47.6889 32.9135 0.0 0.0 0.0 2
O 35.6471 49.4666 15.12591 0.0 0.0 0.0 0
O 10.6847 10.837 15.40574 0.0 0.0 0.0 0
O 18.4998 45.2085 14.2957 0.0 0.0 0.0 0
Ga 48.8844 1.86944 18.82327 0.0 0.0 0.0 0
O 37.0205 32.4351 15.97782 0.0 0.0 0.0 0
Ga 22.3753 8.77289 12.71342 0.0 0.0 0.0 0
O 12.0518 48.467 18.96862 0.0 0.0 0.0 0
Ga 37.3268 39.964 31.0598 0.0 0.0 0.0 2
O 32.4586 47.9959 15.36021 0.0 0.0 0.0 0
O 1.71641 35.5624 29.9394 0.0 0.0 0.0 2
Ga 49.1069 22.5362 27.9576 0.0 0.0 0.0 1
O 11.9131 48.6049 12.12481 0.0 0.0 0.0 0
Ga 22.0846 13.1639 16.57979 0.0 0.0 0.0 0
O 47.9152 48.0041 20.1645 0.0 0.0 0.0 2
Ga 4.30238 21.3994 11.59525 0.0 0.0 0.0 0
Ga 32.6893 42.0087 30.9299 0.0 0.0 0.0 2
O 19.9405 34.1502 18.50271 0.0 0.0 0.0 0
Ga 44.2244 30.4739 16.47074 0.0 0.0 0.0 0
O 19.1222 45.462 27.0691 0.0 0.0 0.0 2
O 46.0199 32.141 27.3238 0.0 0.0 0.0 2
Ga 48.548 43.7902 33.8046 0.0 0.0 0.0 2
O 43.9811 22.0844 15.77812 0.0 0.0 0.0 0
O 18.9643 26.1379 26.4845 0.0 0.0 0.0 2
O 37.1042 34.8364 17.69067 0.0 0.0 0.0 0
O 12.4216 31.6467 22.4975 0.0 0.0 0.0 2
Ga 33.1669 28.5573 12.77126 0.0 0.0 0.0 0
O 22.0147 49.7303 27.1409 0.0 0.0 0.0 2
Ga 7.74212 10.1265 32.3215 0.0 0.0 0.0 1
Ga 44.2699 21.8508 26.132 0.0 0.0 0.0 1
O 38.4534 44.5139 30.0468 0.0 0.0 0.0 2
Ga 40.9957 21.844 24.0237 0.0 0.0 0.0 1
O 8.60005 41.2314 25.7295 0.0 0.0 0.0 2
Ga 43.8874 13.3454 12.19957 0.0 0.0 0.0 0
O 27.092 5.38229 26.6283 0.0 0.0 0.0 1
Ga 49.2755 35.8749 32.6735 0.0 0.0 0.0 2
O 43.7839 33.6628 28.3709 0.0 0.0 0.0 2
Ga 38.3549 21.2581 21.8606 0.0 0.0 0.0 1
Ga 42.0982 35.9236 14.67283 0.0 0.0 0.0 0
O 27.1976 47.8485 28.2977 0.0 0.0 0.0 2
O 3.79531 41.3158 28.1754 0.0 0.0 0.0 2
O 29.3075 42.9517 24.0686 0.0 0.0 0.0 2
Ga 34.1228 17.6181 22.192 0.0 0.0 0.0 1
O 32.292 47.9486 28.624 0.0 0.0 0.0 2
O 6.84756 40.6981 23.2478 0.0 0.0 0.0 2
O 37.5938 11.6731 21.9075 0.0 0.0 0.0 1
O 21.3541 32.6152 28.2979 0.0 0.0 0.0 2
Ga 14.3336 19.7833 10.93944 0.0 0.0 0.0 0
Ga 20.6745 2.47743 15.00214 0.0 0.0 0.0 0
O 28.8612 26.9762 22.4781 0.0 0.0 0.0 2
Ga 43.6702 28.7491 19.29551 0.0 0.0 0.0 0
O 46.2092 37.6359 22.9127 0.0 0.0 0.0 2
Ga 19.0661 49.0604 15.95691 0.0 0.0 0.0 0
O 44.754 42.4441 15.11493 0.0 0.0 0.0 0
Ga 34.564 16.1754 18.49689 0.0 0.0 0.0 0
O 16.5168 33.2795 30.9949 0.0 0.0 0.0 2
Ga 41.0657 20.7309 11.56465 0.0 0.0 0.0 0
O 10.2702 15.3701 23.2607 0.0 0.0 0.0 1
Ga 20.2139 27.1148 22.1221 0.0 0.0 0.0 2
O 31.2222 23.2101 10.88645 0.0 0.0 0.0 0
Ga 49.5797 42.0559 20.206 0.0 0.0 0.0 2
Ga 15.2053 31.422 26.5663 0.0 0.0 0.0 2
O 12.7341 15.0547 12.59838 0.0 0.0 0.0 0
Ga 36.8429 43.6734 18.9546 0.0 0.0 0.0 0
O 39.6163 19.7899 21.8181 0.0 0.0 0.0 1
Ga 42.3246 11.7539 29.3206 0.0 0.0 0.0 1
Ga 26.0552 45.677 10.941277 0.0 0.0 0.0 0
Ga 48.7063 39.9007 22.6772 0.0 0.0 0.0 2
O 33.1178 43.1089 14.02904 0.0 0.0 0.0 0
Ga 42.0389 34.5411 34.6456 0.0 0.0 0.0 2
O 40.5341 1.08554 15.34976 0.0 0.0 0.0 0
Ga 19.549 20.5313 21.4713 0.0 0.0 0.0 1
O 9.79024 4.60755 10.49122 0.0 0.0 0.0 0
O 27.511 39.1127 23.8398 0.0 0.0 0.0 2
O 9.97755 33.1924 18.65585 0.0 0.0 0.0 0
O 35.2021 16.1053 22.5075 0.0 0.0 0.0 1
O 5.80528 3.086 17.962 0.0 0.0 0.0 0
Ga 6.54389 42.3987 26.0379 0.0 0.0 0.0 2
O 34.4151 20.4589 17.13748 0.0 0.0 0.0 0
O 16.746 12.1672 22.202 0.0 0.0 0.0 1
Ga 14.6896 5.39134 15.62197 0.0 0.0 0.0 0
Ga 13.2227 21.5439 21.6233 0.0 0.0 0.0 1
O 35.0897 30.9086 23.6992 0.0 0.0 0.0 2
O 31.5852 6.48365 16.94127 0.0 0.0 0.0 0
O 49.3232 45.0022 23.7478 0.0 0.0 0.0 2
O 11.0767 26.9059 24.8913 0.0 0.0 0.0 2
O 44.7876 43.6759 34.7597 0.0 0.0 0.0 2
Ga 7.41437 12.648 17.89451 0.0 0.0 0.0 0
Ga 25.2136 20.9618 25.6956 0.0 0.0 0.0 1
Ga 30.1729 20.8056 22.8418 0.0 0.0 0.0 1
O 26.4385 9.69416 25.2065 0.0 0.0 0.0 1
Ga 18.0741 6.367 19.90109 0.0 0.0 0.0 0
O 27.2537 28.9372 15.20713 0.0 0.0 0.0 0
Ga 24.103 29.0119 12.18278 0.0 0.0 0.0 0
Ga 11.4615 18.957 10.722837 0.0 0.0 0.0 0
O 27.1494 42.2455 31.2754 0.0 0.0 0.0 2
O 7.18413 10.0361 27.786 0.0 0.0 0.0 1
O 22.214 24.4164 17.0598 0.0 0.0 0.0 0
Ga 48.3506 46.578 18.81887 0.0 0.0 0.0 0
O 24.1378 9.15887 12.09789 0.0 0.0 0.0 0
O 30.6689 45.3388 24.5073 0.0 0.0 0.0 2
O 4.02044 21.4056 19.01192 0.0 0.0 0.0 0
Ga 8.20898 40.1789 14.86511 0.0 0.0 0.0 0
O 22.307 49.89 24.2762 0.0 0.0 0.0 2
O 4.48636 4.92188 26.2048 0.0 0.0 0.0 1
Ga 30.666 7.46135 15.55795 0.0 0.0 0.0 0
Ga 9.27055 13.9839 31.2625 0.0 0.0 0.0 1
O 42.0172 40.6964 22.2858 0.0 0.0 0.0 2
Ga 44.0959 7.44139 27.2989 0.0 0.0 0.0 1
O 22.8987 44.487 11.78994 0.0 0.0 0.0 0
O 8.76526 11.7303 16.92424 0.0 0.0 0.0 0
Ga 33.4407 8.95431 16.70489 0.0 0.0 0.0 0
O 17.1403 45.6356 34.2717 0.0 0.0 0.0 2
O 12.9353 36.4216 31.6748 0.0 0.0 0.0 2
O 22.5358 30.5414 21.3229 0.0 0.0 0.0 2
Ga 40.1001 49.2707 33.7227 0.0 0.0 0.0 2
O 7.18532 32.2947 10.708228 0.0 0.0 0.0 0
Ga 41.058 48.5188 25.5357 0.0 0.0 0.0 2
O 22.0669 4.77305 17.6164 0.0 0.0 0.0 0
O 46.655 37.621 16.96168 0.0 0.0 0.0 0
O 26.6613 23.0175 13.16674 0.0 0.0 0.0 0
Ga 5.11018 38.6271 30.8502 0.0 0.0 0.0 2
Ga 49.4186 19.8847 34.0117 0.0 0.0 0.0 1
O 27.9163 24.2858 15.20701 0.0 0.0 0.0 0
Ga 19.3174 37.7686 24.1482 0.0 0.0 0.0 2
O 31.5154 10.7402 22.7032 0.0 0.0 0.0 1
Ga 5.26132 20.0502 14.15412 0.0 0.0 0.0 0
O 8.10581 48.9356 30.359 0.0 0.0 0.0 2
O 1.4124 41.035 25.2814 0.0 0.0 0.0 2
Ga 0.339669 9.19296 33.839 0.0 0.0 0.0 1
O 17.5668 23.2586 16.0144 0.0 0.0 0.0 0
O 20.1053 18.809 21.1068 0.0 0.0 0.0 1
Ga 48.0328 35.74 29.5879 0.0 0.0 0.0 2
Ga 37.4945 28.474 32.398 0.0 0.0 0.0 2
O 24.2132 34.3417 10.224818 0.0 0.0 0.0 0
Ga 44.4139 6.271 19.8173 0.0 0.0 0.0 0
O 20.6141 46.8782 34.001 0.0 0.0 0.0 2
O 41.203 44.473 18.71626 0.0 0.0 0.0 0
Ga 44.8457 26.9687 11.92224 0.0 0.0 0.0 0
O 27.1323 19.7934 12.8145 0.0 0.0 0.0 0
O 42.2216 47.9331 14.78943 0.0 0.0 0.0 0
Ga 35.0273 3.40585 17.86716 0.0 0.0 0.0 0
O 24.8134 0.00569853 25.9327 0.0 0.0 0.0 1
O 22.7412 35.2896 18.67773 0.0 0.0 0.0 0
Ga 27.8903 34.0946 32.5356 0.0 0.0 0.0 2
Ga 14.2269 11.3066 29.0189 0.0 0.0 0.0 1
Ga 34.2421 47.9993 14.92479 0.0 0.0 0.0 0
O 33.034 15.1811 19.28884 0.0 0.0 0.0 0
O 4.8199 37.3569 19.13614 0.0 0.0 0.0 0
Ga 5.51675 27.3612 21.0386 0.0 0.0 0.0 2
O 40.7627 40.8753 13.28059 0.0 0.0 0.0 0
Ga 21.9783 15.0138 21.1319 0.0 0.0 0.0 1
O 37.4951 16.3216 25.7011 0.0 0.0 0.0 1
O 13.9883 40.1365 20.8343 0.0 0.0 0.0 2
Ga 32.6779 33.8589 25.9334 0.0 0.0 0.0 2
O 41.48 22.146 12.82906 0.0 0.0 0.0 0
Ga 5.24034 19.7351 22.5703 0.0 0.0 0.0 1
O 12.7043 38.1205 10.775835 0.0 0.0 0.0 0
Ga 39.3595 40.8925 14.65364 0.0 0.0 0.0 0
O 25.3512 19.5819 26.9302 0.0 0.0 0.0 1
O 15.4282 38.5957 25.4237 0.0 0.0 0.0 2
O 35.8459 3.95365 22.6498 0.0 0.0 0.0 1
O 5.99418 28.5783 31.2101 0.0 0.0 0.0 2
O 19.3491 37.3972 32.0773 0.0 0.0 0.0 2
O 43.4127 38.2953 34.1021 0.0 0.0 0.0 2
Ga 24.9247 39.6057 12.15546 0.0 0.0 0.0 0
Ga 37.4589 16.0802 16.92286 0.0 0.0 0.0 0
Ga 5.44321 0.265183 12.99084 0.0 0.0 0.0 0
Ga 34.8568 8.14029 33.5773 0.0 0.0 0.0 1
Ga 18.0055 30.0377 31.3237 0.0 0.0 0.0 2
O 30.3004 40.2495 28.0187 0.0 0.0 0.0 2
O 44.2431 44.9243 23.6475 0.0 0.0 0.0 2
O 13.8052 18.3916 14.10809 0.0 0.0 0.0 0
Ga 1.79846 19.3831 22.0395 0.0 0.0 0.0 1
O 21.0836 18.2066 32.0513 0.0 0.0 0.0 1
O 36.2924 1.43985 12.45003 0.0 0.0 0.0 0
O 26.0104 6.09406 32.6844 0.0 0.0 0.0 1
Ga 31.3016 9.40916 11.42485 0.0 0.0 0.0 0
Ga 12.5178 44.775 32.1659 0.0 0.0 0.0 2
O 1.68125 8.31478 10.326341 0.0 0.0 0.0 0
O 3.77728 37.7052 10.808572 0.0 0.0 0.0 0
O 43.7571 5.21908 21.4097 0.0 0.0 0.0 1
Ga 9.89758 17.0738 30.1106 0.0 0.0 0.0 1
O 17.3602 36.8954 27.4956 0.0 0.0 0.0 2
O 21.467 41.5562 33.6766 0.0 0.0 0.0 2
O 41.0163 4.99914 24.4696 0.0 0.0 0.0 1
O 12.2978 37.1231 28.1087 0.0 0.0 0.0 2
Ga 28.6402 8.79023 13.03259 0.0 0.0 0.0 0
O 25.4859 34.9359 22.3106 0.0 0.0 0.0 2
Ga 44.5389 38.3429 13.9807 0.0 0.0 0.0 0
Ga 11.3317 14.3359 19.54998 0.0 0.0 0.0 0
O 37.274 36.2682 26.3572 0.0 0.0 0.0 2
O 17.2532 27.9105 34.7041 0.0 0.0 0.0 2
O 26.5157 44.2249 21.3252 0.0 0.0 0.0 2
O 2.71821 25.7922 11.64309 0.0 0.0 0.0 0
Ga 22.9059 24.2318 18.74634 0.0 0.0 0.0 0
Ga 42.6234 17.8484 11.94522 0.0 0.0 0.0 0
O 35.2511 20.0953 11.40488 0.0 0.0 0.0 0
O 0.394936 9.46145 29.8794 0.0 0.0 0.0 1
Ga 19.2429 10.6402 23.8624 0.0 0.0 0.0 1
O 12.4548 1.7097 17.05382 0.0 0.0 0.0 0
Ga 4.10847 48.6087 19.55894 0.0 0.0 0.0 0
Ga 12.4297 7.43291 25.2765 0.0 0.0 0.0 1
Ga 6.25755 35.634 29.9202 0.0 0.0 0.0 2
O 22.5206 46.6216 13.49654 0.0 0.0 0.0 0
Ga 47.1321 23.864 32.2755 0.0 0.0 0.0 1
O 29.0497 8.08399 29.5847 0.0 0.0 0.0 1
O 17.4235 21.7052 33.101 0.0 0.0 0.0 1
O 8.0308 28.0883 26.4639 0.0 0.0 0.0 2
O 7.95588 30.2374 32.5072 0.0 0.0 0.0 2
O 36.9002 13.1836 33.8564 0.0 0.0 0.0 1
Ga 18.8111 1.75016 17.13579 0.0 0.0 0.0 0
O 6.08512 4.36866 28.3503 0.0 0.0 0.0 1
Ga 39.3775 10.3186 14.95327 0.0 0.0 0.0 0
O 13.4412 18.8406 34.4769 0.0 0.0 0.0 1
O 33.9001 22.6945 10.699002 0.0 0.0 0.0 0
O 5.34575 32.2407 13.6319 0.0 0.0 0.0 0
Ga 19.5531 33.0389 19.98638 0.0 0.0 0.0 0
Ga 4.31513 25.9381 25.0699 0.0 0.0 0.0 2
O 11.624 49.0239 33.3968 0.0 0.0 0.0 2
Ga 11.409 37.5861 31.4089 0.0 0.0 0.0 2
O 21.3876 43.6364 27.485 0.0 0.0 0.0 2
O 15.0069 32.8948 15.06484 0.0 0.0 0.0 0
O 40.0141 2.56029 33.8612 0.0 0.0 0.0 1
O 28.2772 47.3767 23.43 0.0 0.0 0.0 2
Ga 42.5992 30.3756 10.955072 0.0 0.0 0.0 0
O 24.042 11.3113 33.6191 0.0 0.0 0.0 1
Ga 39.163 0.843413 23.665 0.0 0.0 0.0 1
O 14.8335 5.17668 21.9825 0.0 0.0 0.0 1
O 3.86069 20.2328 15.41465 0.0 0.0 0.0 0
O 49.3721 4.89725 12.92602 0.0 0.0 0.0 0
Ga 28.8944 13.3239 11.28469 0.0 0.0 0.0 0
O 29.3614 26.679 19.50575 0.0 0.0 0.0 0
Ga 49.3299 41.135 17.37668 0.0 0.0 0.0 0
O 12.7619 45.83 11.90357 0.0 0.0 0.0 0
Ga 13.4933 26.7241 32.9778 0.0 0.0 0.0 2
Ga 22.7437 21.2067 19.91298 0.0 0.0 0.0 0
O 48.7445 26.2526 28.6846 0.0 0.0 0.0 2
O 44.8106 38.2193 12.05048 0.0 0.0 0.0 0
O 8.11794 45.7798 30.8773 0.0 0.0 0.0 2
O 46.7081 40.4494 22.216 0.0 0.0 0.0 2
O 27.2952 8.10875 27.3749 0.0 0.0 0.0 1
Ga 45.4662 31.7191 20.8391 0.0 0.0 0.0 2
Ga 22.2855 12.0738 11.2632 0.0 0.0 0.0 0
O 36.1713 17.3251 17.8075 0.0 0.0 0.0 0
O 16.152 19.8777 34.8043 0.0 0.0 0.0 1
Ga 3.67261 38.0391 12.72118 0.0 0.0 0.0 0
O 2.5346 26.7885 24.7048 0.0 0.0 0.0 2
O 7.2966 9.37798 12.69144 0.0 0.0 0.0 0
O 42.3205 0.475934 19.07713 0.0 0.0 0.0 0
Ga 41.18 28.3831 22.9375 0.0 0.0 0.0 2
Ga 38.0476 8.48679 33.201 0.0 0.0 0.0 1
Ga 46.4709 35.1659 12.45295 0.0 0.0 0.0 0
Ga 47.7846 36.5561 22.7611 0.0 0.0 0.0 2
O 2.64819 0.692743 30.0778 0.0 0.0 0.0 1
O 41.1074 9.78945 13.72901 0.0 0.0 0.0 0
Ga 49.9188 3.28284 30.975 0.0 0.0 0.0 1
O 49.6316 32.5127 34.84 0.0 0.0 0.0 2
Ga 46.4553 8.13581 29.1443 0.0 0.0 0.0 1
Ga 2.54974 26.0464 33.7888 0.0 0.0 0.0 2
O 10.3663 40.3685 23.1776 0.0 0.0 0.0 2
Ga 21.9284 37.2601 12.27509 0.0 0.0 0.0 0
O 17.2621 41.2205 30.9553 0.0 0.0 0.0 2
Ga 2.87466 16.3522 17.72298 0.0 0.0 0.0 0
O 12.5991 12.1651 28.4282 0.0 0.0 0.0 1
Ga 29.4913 0.855755 27.7418 0.0 0.0 0.0 1
O 44.5278 3.94066 31.1706 0.0 0.0 0.0 1
O 38.0323 29.0333 11.04317 0.0 0.0 0.0 0
O 28.4909 13.7258 25.7602 0.0 0.0 0.0 1
Ga 32.8718 1.18573 11.75146 0.0 0.0 0.0 0
Ga 24.9026 16.4215 31.7502 0.0 0.0 0.0 1
Ga 9.35779 20.2963 30.4827 0.0 0.0 0.0 1
O 41.2583 40.3048 32.5649 0.0 0.0 0.0 2
O 34.4087 1.85172 18.78607 0.0 0.0 0.0 0
Ga 21.8405 48.0315 23.7767 0.0 0.0 0.0 2
O 45.5192 16.745 22.2504 0.0 0.0 0.0 1
O 26.1709 16.8392 12.08387 0.0 0.0 0.0 0
Ga 22.2092 39.1999 17.26697 0.0 0.0 0.0 0
O 36.986 32.6721 22.494 0.0 0.0 0.0 2
O 46.1192 48.9737 32.1593 0.0 0.0 0.0 2
O 42.0668 20.2719 14.93199 0.0 0.0 0.0 0
O 16.6152 40.7284 13.70146 0.0 0.0 0.0 0
Ga 2.4988 17.8465 29.4625 0.0 0.0 0.0 1
O 2.67623 30.5108 12.64804 0.0 0.0 0.0 0
O 24.658 28.12 33.7306 0.0 0.0 0.0 2
Ga 41.1855 30.4848 14.55251 0.0 0.0 0.0 0
O 9.02416 35.7051 33.8311 0.0 0.0 0.0 2
Ga 21.4163 18.8722 28.2182 0.0 0.0 0.0 1
Ga 35.4012 30.813 13.87815 0.0 0.0 0.0 0
O 27.2937 19.4339 29.042 0.0 0.0 0.0 1
Ga 36.4408 16.5276 31.7295 0.0 0.0 0.0 1
O 38.5495 25.2713 30.6873 0.0 0.0 0.0 2
O 13.466 31.2433 25.7241 0.0 0.0 0.0 2
Ga 17.6479 16.7668 14.94478 0.0 0.0 0.0 0
O 49.3157 37.3154 29.2888 0.0 0.0 0.0 2
Ga 19.3027 22.0704 33.1718 0.0 0.0 0.0 1
O 41.0536 41.625 18.6127 0.0 0.0 0.0 0
Ga 47.0496 4.49139 22.951 0.0 0.0 0.0 1
O 35.7763 30.9457 10.989556 0.0 0.0 0.0 0
Ga 29.8098 1.36369 30.7338 0.0 0.0 0.0 1
O 33.1489 16.7045 26.627 0.0 0.0 0.0 1
Ga 28.282 16.3491 31.8353 0.0 0.0 0.0 1
O 28.8443 32.3448 28.7139 0.0 0.0 0.0 2
O 18.7333 6.08345 31.6176 0.0 0.0 0.0 1
Ga 14.9957 25.4842 28.171 0.0 0.0 0.0 2
O 49.0272 21.1077 19.75112 0.0 0.0 0.0 0
O 26.8223 2.0726 33.2148 0.0 0.0 0.0 1
O 49.0856 10.2883 20.5539 0.0 0.0 0.0 1
O 12.4419 13.1723 20.4538 0.0 0.0 0.0 1
Ga 45.9993 7.80592 22.5724 0.0 0.0 0.0 1
O 25.4189 30.3984 19.47059 0.0 0.0 0.0 0
Ga 19.9294 48.7253 21.282 0.0 0.0 0.0 2
O 43.0311 10.7183 15.71253 0.0 0.0 0.0 0
Ga 36.7558 5.90159 28.5885 0.0 0.0 0.0 1
O 37.7357 19.3573 27.1589 0.0 0.0 0.0 1
O 20.7721 5.21884 22.4413 0.0 0.0 0.0 1
Ga 6.38521 41.4609 31.2112 0.0 0.0 0.0 2
O 2.42283 39.0895 18.31863 0.0 0.0 0.0 0
O 15.186 42.4995 18.47602 0.0 0.0 0.0 0
O 24.6281 9.11013 27.1141 0.0 0.0 0.0 1
O 17.4707 24.1721 34.7667 0.0 0.0 0.0 1
Ga 16.5737 22.5086 34.5441 0.0 0.0 0.0 1
O 20.9456 38.194 34.5353 0.0 0.0 0.0 2
Ga 33.6866 29.6158 16.42945 0.0 0.0 0.0 0
O 14.7968 21.1187 20.4453 0.0 0.0 0.0 1
O 22.5089 41.9213 30.8838 0.0 0.0 0.0 2
O 26.9594 26.5546 32.8471 0.0 0.0 0.0 2
Ga 21.9768 14.758 24.438 0.0 0.0 0.0 1
O 29.3369 22.5158 22.3807 0.0 0.0 0.0 1
Ga 14.2146 39.4141 18.01747 0.0 0.0 0.0 0
O 9.3305 49.1165 19.80845 0.0 0.0 0.0 0
Ga 8.84118 44.6772 12.00077 0.0 0.0 0.0 0
Ga 25.3737 2.19116 11.89788 0.0 0.0 0.0 0
O 40.098 26.8603 26.7538 0.0 0.0 0.0 2
Ga 0.547881 48.0811 24.261 0.0 0.0 0.0 2
Ga 48.6011 43.7065 30.5173 0.0 0.0 0.0 2
O 15.2586 4.52254 17.08887 0.0 0.0 0.0 0
O 1.98674 31.5604 15.35611 0.0 0.0 0.0 0
O 35.2435 34.6417 33.3013 0.0 0.0 0.0 2
O 12.9995 24.4541 15.04602 0.0 0.0 0.0 0
O 11.8941 23.9717 29.4156 0.0 0.0 0.0 1
Ga 25.7943 18.4493 13.00525 0.0 0.0 0.0 0
O 30.0901 32.4665 23.8206 0.0 0.0 0.0 2
O 45.4862 11.468 29.4507 0.0 0.0 0.0 1
Ga 41.4421 10.5513 22.1375 0.0 0.0 0.0 1
O 38.1698 25.2476 33.7801 0.0 0.0 0.0 2
Ga 8.47716 31.6926 15.59538 0.0 0.0 0.0 0
O 5.51281 46.6331 29.8645 0.0 0.0 0.0 2
Ga 29.9733 0.926986 33.9745 0.0 0.0 0.0 1
Ga 36.7623 29.3341 20.6248 0.0 0.0 0.0 2
O 28.6735 30.3428 12.50239 0.0 0.0 0.0 0
Ga 22.2996 11.4576 24.558 0.0 0.0 0.0 1
O 44.5585 20.6244 31.7314 0.0 0.0 0.0 1
O 37.6545 36.1123 33.4265 0.0 0.0 0.0 2
O 48.2536 37.0126 19.11376 0.0 0.0 0.0 0
O 47.7092 15.0945 12.40866 0.0 0.0 0.0 0
Ga 4.7353 42.0362 33.9698 0.0 0.0 0.0 2
O 33.1963 45.3496 32.2033 0.0 0.0 0.0 2
Ga 4.03629 41.6444 12.64657 0.0 0.0 0.0 0
O 15.9802 5.58289 31.2278 0.0 0.0 0.0 1
O 18.4213 26.5968 15.45683 0.0 0.0 0.0 0
O 4.93551 19.2959 12.53708 0.0 0.0 0.0 0
Ga 8.41601 31.9466 22.6051 0.0 0.0 0.0 2
O 44.6241 0.725502 23.8828 0.0 0.0 0.0 1
Ga 10.7544 8.07181 17.95268 0.0 0.0 0.0 0
Ga 29.3258 25.1513 16.11177 0.0 0.0 0.0 0
Ga 10.5066 24.1099 28.0292 0.0 0.0 0.0 1
Ga 16.6539 1.81549 31.4555 0.0 0.0 0.0 1
Ga 16.8868 9.18486 25.366 0.0 0.0 0.0 1
O 12.4454 22.8587 11.72206 0.0 0.0 0.0 0
O 18.9393 17.2485 30.4257 0.0 0.0 0.0 1
O 17.5908 0.649623 28.1596 0.0 0.0 0.0 1
O 6.70925 16.3655 19.91605 0.0 0.0 0.0 0
Ga 43.9333 35.6353 20.3664 0.0 0.0 0.0 2
O 23.2032 18.0508 21.9688 0.0 0.0 0.0 1
O 5.60229 13.4769 32.7774 0.0 0.0 0.0 1
Ga 25.4682 7.4836 17.59326 0.0 0.0 0.0 0
O 43.492 0.593801 16.01612 0.0 0.0 0.0 0
O 25.772 45.1313 18.67597 0.0 0.0 0.0 0
O 23.862 43.2755 29.1816 0.0 0.0 0.0 2
O 23.8171 42.6441 26.1008 0.0 0.0 0.0 2
O 21.6862 21.8927 24.9569 0.0 0.0 0.0 1
O 46.6283 42.0185 28.3744 0.0 0.0 0.0 2
Ga 11.1886 5.65987 15.9744 0.0 0.0 0.0 0
O 40.6578 10.1181 26.4444 0.0 0.0 0.0 1
O 13.7295 5.30566 14.01849 0.0 0.0 0.0 0
O 46.7461 9.50649 12.00921 0.0 0.0 0.0 0
Ga 46.4884 9.23506 25.4144 0.0 0.0 0.0 1
O 8.54157 4.42366 29.9713 0.0 0.0 0.0 1
O 36.9545 34.5525 11.63197 0.0 0.0 0.0 0
Ga 19.2761 15.8805 22.639 0.0 0.0 0.0 1
O 4.16762 36.8349 22.1877 0.0 0.0 0.0 2
Ga 21.8375 40.9672 11.09509 0.0 0.0 0.0 0
O 8.30065 35.9527 11.19053 0.0 0.0 0.0 0
O 23.9601 43.7302 14.12309 0.0 0.0 0.0 0
O 5.31231 49.8775 31.5036 0.0 0.0 0.0 2
Ga 2.64403 26.8381 22.7613 0.0 0.0 0.0 2
O 39.0383 34.6255 28.3438 0.0 0.0 0.0 2
O 5.05313 0.64957 34.3997 0.0 0.0 0.0 1
Ga 36.4736 45.4533 15.91065 0.0 0.0 0.0 0
O 17.6333 11.8272 11.23977 0.0 0.0 0.0 0
O 6.69254 37.4966 12.26696 0.0 0.0 0.0 0
Ga 1.50044 39.137 24.9018 0.0 0.0 0.0 2
O 35.5075 6.98137 19.97237 0.0 0.0 0.0 0
O 23.2442 6.79453 22.832 0.0 0.0 0.0 1
O 47.2098 14.4851 25.2731 0.0 0.0 0.0 1
Ga 45.9069 21.5479 12.2127 0.0 0.0 0.0 0
O 9.16963 35.0474 24.7162 0.0 0.0 0.0 2
O 5.0051 8.64832 21.6943 0.0 0.0 0.0 1
Ga 19.0351 46.5293 10.592636 0.0 0.0 0.0 0
O 9.46969 9.31704 32.7153 0.0 0.0 0.0 1
O 20.3077 39.9578 11.42008 0.0 0.0 0.0 0
O 36.3534 4.44677 31.4941 0.0 0.0 0.0 1
O 36.4484 43.8506 27.9753 0.0 0.0 0.0 2
Ga 1.68473 9.80963 23.1292 0.0 0.0 0.0 1
O 25.3074 18.7066 10.0838415 0.0 0.0 0.0 0
O 32.5486 3.84879 29.2886 0.0 0.0 0.0 1
Ga 35.2494 0.408138 29.8522 0.0 0.0 0.0 1
O 30.0278 36.9799 20.5336 0.0 0.0 0.0 2
O 29.4147 2.78767 33.5794 0.0 0.0 0.0 1
Ga 46.7581 36.1918 15.46354 0.0 0.0 0.0 0
O 18.5533 16.6049 32.8811 0.0 0.0 0.0 1
Ga 39.8737 18.0637 10.461609 0.0 0.0 0.0 0
O 37.0501 14.0678 23.7982 0.0 0.0 0.0 1
Ga 30.1054 48.6202 31.6737 0.0 0.0 0.0 2
O 14.3367 2.67474 14.85186 0.0 0.0 0.0 0
O 47.5307 13.6942 30.3654 0.0 0.0 0.0 1
Ga 11.1084 2.90598 17.4375 0.0 0.0 0.0 0
Ga 6.54074 19.8199 28.8592 0.0 0.0 0.0 1
O 0.936088 40.4888 28.4402 0.0 0.0 0.0 2
O 15.8061 10.7935 25.0118 0.0 0.0 0.0 1
O 28.5608 26.6277 17.00734 0.0 0.0 0.0 0
O 45.073 16.2699 25.1587 0.0 0.0 0.0 1
O 48.7234 11.3881 17.97222 0.0 0.0 0.0 0
O 16.3578 18.0091 32.7437 0.0 0.0 0.0 1
Ga 2.95771 22.283 20.5677 0.0 0.0 0.0 1
O 26.8606 21.762 25.0959 0.0 0.0 0.0 1
Ga 24.5921 19.8522 31.7692 0.0 0.0 0.0 1
O 7.81739 20.7058 22.6768 0.0 0.0 0.0 1
Ga 21.1381 10.9783 14.25788 0.0 0.0 0.0 0
Ga 23.5071 28.7278 27.4101 0.0 0.0 0.0 2
O 19.7501 5.64725 19.31469 0.0 0.0 0.0 0
O 47.5746 22.0013 32.0957 0.0 0.0 0.0 1
Ga 19.6992 34.8588 34.6197 0.0 0.0 0.0 2
Ga 35.0528 35.3139 29.4999 0.0 0.0 0.0 2
O 18.6401 19.6278 34.0229 0.0 0.0 0.0 1
Ga 4.12698 28.794 31.3022 0.0 0.0 0.0 2
O 40.7122 12.4789 29.6247 0.0 0.0 0.0 1
O 25.9825 34.9346 30.0551 0.0 0.0 0.0 2
Ga 12.3612 14.8629 16.40394 0.0 0.0 0.0 0
O 37.7609 29.9164 16.81249 0.0 0.0 0.0 0
Ga 40.1101 13.1999 16.58968 0.0 0.0 0.0 0
O 34.9834 47.1852 26.7794 0.0 0.0 0.0 2
O 47.1666 45.2602 19.39863 0.0 0.0 0.0 0
O 4.59542 34.371 30.3568 0.0 0.0 0.0 2
O 39.5445 23.6027 18.56686 0.0 0.0 0.0 0
Ga 7.15426 13.6745 27.9995 0.0 0.0 0.0 1
O 43.2696 30.5508 28.1835 0.0 0.0 0.0 2
Ga 44.6809 45.7087 13.85132 0.0 0.0 0.0 0
O 18.8114 13.6116 12.57577 0.0 0.0 0.0 0
O 27.7239 32.1582 19.00599 0.0 0.0 0.0 0
Ga 28.0751 3.53831 32.5509 0.0 0.0 0.0 1
O 5.39871 42.7256 16.76661 0.0 0.0 0.0 0
Ga 31.9124 9.35653 33.6661 0.0 0.0 0.0 1
O 40.7574 31.6328 20.2312 0.0 0.0 0.0 2
Ga 41.8811 32.3115 31.7718 0.0 0.0 0.0 2
Ga 7.07888 3.89341 32.4515 0.0 0.0 0.0 1
O 16.1585 1.53835 10.661275 0.0 0.0 0.0 0
Ga 36.9498 12.2252 27.6217 0.0 0.0 0.0 1
O 19.5504 10.8892 32.0898 0.0 0.0 0.0 1
O 14.8182 4.37946 25.8023 0.0 0.0 0.0 1
O 42.5312 38.087 26.431 0.0 0.0 0.0 2
O 23.2431 20.7944 30.7912 0.0 0.0 0.0 1
Ga 17.8993 29.887 28.133 0.0 0.0 0.0 2
O 16.8076 46.664 21.5822 0.0 0.0 0.0 2
Ga 49.0147 11.0723 24.3753 0.0 0.0 0.0 1
Ga 11.4018 39.3832 34.4273 0.0 0.0 0.0 2
O 49.7594 15.4823 20.9763 0.0 0.0 0.0 1
O 13.7413 41.4984 14.92152 0.0 0.0 0.0 0
O 15.8961 39.7063 18.91597 0.0 0.0 0.0 0
O 8.1989 0.585779 21.5897 0.0 0.0 0.0 1
O 9.30142 17.0959 18.84986 0.0 0.0 0.0 0
O 2.7281 13.9886 13.72912 0.0 0.0 0.0 0
Ga 40.8024 35.4436 31.8636 0.0 0.0 0.0 2
O 23.5158 9.71884 24.0217 0.0 0.0 0.0 1
O 7.28471 30.7457 21.6533 0.0 0.0 0.0 2
Ga 13.7099 4.64655 18.27186 0.0 0.0 0.0 0
O 26.5941 30.2485 34.9119 0.0 0.0 0.0 2
O 12.3234 22.8539 33.0866 0.0 0.0 0.0 1
Ga 20.0568 19.6065 31.3699 0.0 0.0 0.0 1
O 31.0954 41.703 12.2503 0.0 0.0 0.0 0
Ga 13.6719 18.1023 22.077 0.0 0.0 0.0 1
O 19.8591 1.27587 18.82189 0.0 0.0 0.0 0
O 47.989 11.7671 10.543157 0.0 0.0 0.0 0
O 41.3939 2.80733 31.206 0.0 0.0 0.0 1
Ga 48.5144 22.4641 20.8584 0.0 0.0 0.0 1
O 28.4201 21.7797 19.56685 0.0 0.0 0.0 0
Ga 3.18303 41.1638 26.2572 0.0 0.0 0.0 2
O 47.5567 12.1891 13.33143 0.0 0.0 0.0 0
O 24.5671 35.5162 26.9817 0.0 0.0 0.0 2
Ga 39.8788 21.2938 31.6756 0.0 0.0 0.0 1
Ga 19.863 6.79459 22.9162 0.0 0.0 0.0 1
O 21.0671 39.7852 30.5021 0.0 0.0 0.0 2
O 43.9779 41.1703 27.7306 0.0 0.0 0.0 2
Ga 4.02239 19.2792 34.2528 0.0 0.0 0.0 1
O 24.4428 3.85378 20.3733 0.0 0.0 0.0 1
O 24.9599 17.3734 25.0768 0.0 0.0 0.0 1
Ga 20.8298 0.503234 12.30002 0.0 0.0 0.0 0
O 48.9111 18.5264 10.515228 0.0 0.0 0.0 0
O 6.90569 1.12498 12.09173 0.0 0.0 0.0 0
O 0.214479 46.3677 19.46783 0.0 0.0 0.0 0
Ga 10.9722 30.5954 13.31468 0.0 0.0 0.0 0
O 20.8064 16.5656 23.6398 0.0 0.0 0.0 1
O 20.7721 36.5998 20.2566 0.0 0.0 0.0 2
Ga 4.24989 46.1066 25.6545 0.0 0.0 0.0 2
Ga 5.54195 40.4759 28.1171 0.0 0.0 0.0 2
Ga 39.4349 40.6491 24.5083 0.0 0.0 0.0 2
O 8.36838 49.6316 27.0479 0.0 0.0 0.0 2
Ga 21.7105 26.6231 12.63226 0.0 0.0 0.0 0
O 20.4507 3.91006 31.6818 0.0 0.0 0.0 1
Ga 27.0069 42.5629 12.00964 0.0 0.0 0.0 0
O 49.261 42.6179 29.0033 0.0 0.0 0.0 2
O 16.3372 11.6367 32.0459 0.0 0.0 0.0 1
Ga 36.9335 38.398 33.8693 0.0 0.0 0.0 2
O 21.6786 19.6637 23.1489 0.0 0.0 0.0 1
O 22.7276 38.7438 15.55013 0.0 0.0 0.0 0
Ga 37.8489 10.0077 20.8809 0.0 0.0 0.0 1
Ga 34.6681 6.9783 25.998 0.0 0.0 0.0 1
O 35.6592 38.647 13.67754 0.0 0.0 0.0 0
Ga 36.3002 24.0755 10.727482 0.0 0.0 0.0 0
O 46.2295 39.5495 32.4618 0.0 0.0 0.0 2
O 17.3979 28.1608 31.1777 0.0 0.0 0.0 2
Ga 47.1023 35.2276 25.6551 0.0 0.0 0.0 2
Ga 33.7477 30.6425 22.0886 0.0 0.0 0.0 2
O 37.2368 6.69008 12.25356 0.0 0.0 0.0 0
Ga 6.92399 38.6883 33.4548 0.0 0.0 0.0 2
Ga 46.8421 23.6179 25.166 0.0 0.0 0.0 1
O 34.7701 41.3458 15.6304 0.0 0.0 0.0 0
Ga 22.9051 1.31363 23.2535 0.0 0.0 0.0 1
O 25.1767 33.5465 12.77229 0.0 0.0 0.0 0
Ga 39.28 2.33221 14.49361 0.0 0.0 0.0 0
O 13.4448 9.69006 28.0118 0.0 0.0 0.0 1
Ga 12.5651 24.4675 10.728649 0.0 0.0 0.0 0
O 46.3812 33.293 21.5936 0.0 0.0 0.0 2
O 13.0152 34.1825 27.1076 0.0 0.0 0.0 2
Ga 31.3484 10.3421 14.70893 0.0 0.0 0.0 0
O 4.06134 16.9911 28.8347 0.0 0.0 0.0 1
O 16.3746 23.3747 19.06838 0.0 0.0 0.0 0
Ga 28.3028 19.6403 16.32802 0.0 0.0 0.0 0
O 3.50935 5.49204 32.7375 0.0 0.0 0.0 1
O 7.40284 6.63707 17.78931 0.0 0.0 0.0 0
O 31.4392 17.3563 10.00946447 0.0 0.0 0.0 0
O 26.9048 37.2351 21.3329 0.0 0.0 0.0 2
O 10.4727 43.8917 12.99807 0.0 0.0 0.0 0
Ga 37.3049 17.0361 12.21109 0.0 0.0 0.0 0
O 29.5613 35.3656 25.8491 0.0 0.0 0.0 2
O 49.9036 19.3932 22.2993 0.0 0.0 0.0 1
O 30.3362 0.405976 17.1249 0.0 0.0 0.0 0
O 45.7973 14.2208 20.7323 0.0 0.0 0.0 1
O 45.5066 8.73554 27.3106 0.0 0.0 0.0 1
Ga 46.0206 13.9156 16.42761 0.0 0.0 0.0 0
O 13.3408 12.5297 33.619 0.0 0.0 0.0 1
O 28.069 14.3301 22.966 0.0 0.0 0.0 1
O 35.5643 21.2114 28.0142 0.0 0.0 0.0 1
Ga 33.41 21.7799 30.5334 0.0 0.0 0.0 1
Ga 43.6775 40.1765 34.5574 0.0 0.0 0.0 2
O 37.0584 15.7756 33.9067 0.0 0.0 0.0 1
Ga 46.7429 24.0671 17.30734 0.0 0.0 0.0 0
O 22.2285 33.9281 25.526 0.0 0.0 0.0 2
O 38.7885 11.8681 27.8377 0.0 0.0 0.0 1
O 31.0317 43.8129 27.6409 0.0 0.0 0.0 2
O 0.427207 17.2019 31.8973 0.0 0.0 0.0 1
O 17.5828 2.80391 15.81244 0.0 0.0 0.0 0
Ga 33.4937 36.9522 27.1095 0.0 0.0 0.0 2
O 0.078538 13.9343 24.1658 0.0 0.0 0.0 1
Ga 20.0934 28.7307 10.427813 0.0 0.0 0.0 0
O 7.0633 25.7753 24.3046 0.0 0.0 0.0 2
O 37.1607 37.2858 18.47486 0.0 0.0 0.0 0
O 44.2113 22.0583 20.8774 0.0 0.0 0.0 1
Ga 30.4642 42.1185 19.54484 0.0 0.0 0.0 0
O 8.3191 35.6302 18.27223 0.0 0.0 0.0 0
O 35.942 10.9828 11.01075 0.0 0.0 0.0 0
O 19.1623 19.617 11.73096 0.0 0.0 0.0 0
O 41.8517 46.7702 25.1082 0.0 0.0 0.0 2
Ga 13.1566 11.1417 34.9242 0.0 0.0 0.0 1
O 31.9616 44.9995 21.8729 0.0 0.0 0.0 2
O 44.6297 5.2047 10.485278 0.0 0.0 0.0 0
O 23.2778 31.0632 25.3585 0.0 0.0 0.0 2
Ga 47.6577 4.00495 28.5987 0.0 0.0 0.0 1
Ga 24.8113 12.1368 18.29335 0.0 0.0 0.0 0
O 2.3894 7.69979 12.91364 0.0 0.0 0.0 0
Ga 15.9891 12.3073 10.531832 0.0 0.0 0.0 0
O 44.2489 2.7023 14.69649 0.0 0.0 0.0 0
O 32.0205 31.0573 22.8546 0.0 0.0 0.0 2
Ga 19.5797 30.1408 25.2198 0.0 0.0 0.0 2
O 44.3368 30.3899 25.488 0.0 0.0 0.0 2
Ga 48.6146 20.2055 11.51562 0.0 0.0 0.0 0
O 12.2814 47.5463 27.8768 0.0 0.0 0.0 2
Ga 17.6509 23.2151 29.1575 0.0 0.0 0.0 1
O 30.4796 41.724 17.71518 0.0 0.0 0.0 0
O 44.8546 26.1737 13.76517 0.0 0.0 0.0 0
O 47.0529 47.8419 17.62165 0.0 0.0 0.0 0
Ga 12.4849 47.5543 34.26 0.0 0.0 0.0 2
O 20.892 36.7619 29.7418 0.0 0.0 0.0 2
Ga 30.2431 21.939 15.43759 0.0 0.0 0.0 0
O 48.5857 35.768 16.1802 0.0 0.0 0.0 0
Ga 15.9721 20.0279 21.7684 0.0 0.0 0.0 1
O 49.3209 39.4293 18.04169 0.0 0.0 0.0 0
Ga 18.0124 33.2362 32.226 0.0 0.0 0.0 2
O 8.67557 6.03538 15.37348 0.0 0.0 0.0 0
Ga 15.6875 44.6047 33.7606 0.0 0.0 0.0 2
O 14.6344 30.0882 13.05212 0.0 0.0 0.0 0
Ga 41.7257 15.7531 20.3285 0.0 0.0 0.0 1
O 1.13677 11.6067 10.325037 0.0 0.0 0.0 0
O 42.7342 14.5596 19.32201 0.0 0.0 0.0 0
O 33.4839 30.4792 27.2982 0.0 0.0 0.0 2
O 49.1035 4.90895 31.8557 0.0 0.0 0.0 1
Ga 22.3179 44.8852 14.16203 0.0 0.0 0.0 0
O 33.6835 23.3017 31.6684 0.0 0.0 0.0 1
O 10.3519 36.5949 22.959 0.0 0.0 0.0 2
Ga 13.8897 23.705 33.6444 0.0 0.0 0.0 1
O 29.4853 24.3369 12.8632 0.0 0.0 0.0 0
O 9.97599 22.228 18.97983 0.0 0.0 0.0 0
O 40.5022 9.66268 29.3109 0.0 0.0 0.0 1
O 19.0125 45.5046 32.0021 0.0 0.0 0.0 2
O 16.2732 27.8539 19.04714 0.0 0.0 0.0 0
Ga 30.26 31.654 30.2525 0.0 0.0 0.0 2
O 33.0265 7.80302 19.9923 0.0 0.0 0.0 0
Ga 36.6727 2.06557 22.6547 0.0 0.0 0.0 1
O 35.6948 41.1995 27.9411 0.0 0.0 0.0 2
Ga 37.1574 42.4292 11.93202 0.0 0.0 0.0 0
O 36.7177 22.7438 11.97632 0.0 0.0 0.0 0
Ga 12.3585 19.6463 13.66617 0.0 0.0 0.0 0
O 10.8429 19.1217 24.2477 0.0 0.0 0.0 1
Ga 0.628542 3.43269 27.6073 0.0 0.0 0.0 1
Ga 40.3552 20.695 15.70387 0.0 0.0 0.0 0
O 18.9002 2.28021 21.2441 0.0 0.0 0.0 1
Ga 22.6246 20.4555 15.8974 0.0 0.0 0.0 0
O 43.2185 26.6697 16.26252 0.0 0.0 0.0 0
O 49.4733 26.5894 10.791364 0.0 0.0 0.0 0
Ga 16.958 45.7873 16.72662 0.0 0.0 0.0 0
Ga 25.0824 13.0544 26.0592 0.0 0.0 0.0 1
O 17.9518 0.00315864 17.19991 0.0 0.0 0.0 0
Ga 33.8198 44.7933 14.29612 0.0 0.0 0.0 0
O 39.3685 19.6222 18.97973 0.0 0.0 0.0 0
Ga 18.2192 25.2485 33.3451 0.0 0.0 0.0 2
O 20.5748 34.3188 12.6034 0.0 0.0 0.0 0
Ga 23.5868 24.7296 24.342 0.0 0.0 0.0 1
O 36.1379 34.2397 28.3793 0.0 0.0 0.0 2
Ga 20.4647 27.6078 32.0506 0.0 0.0 0.0 2
O 12.9413 36.383 20.8879 0.0 0.0 0.0 2
Ga 33.558 34.1412 33.9746 0.0 0.0 0.0 2
O 5.00455 32.0556 16.53288 0.0 0.0 0.0 0
Ga 43.5867 7.67497 30.485 0.0 0.0 0.0 1
O 46.6856 43.8477 10.255255 0.0 0.0 0.0 0
O 3.87263 41.7299 19.21011 0.0 0.0 0.0 0
Ga 44.8377 49.3476 22.5679 0.0 0.0 0.0 2
O 1.87468 15.4017 19.20872 0.0 0.0 0.0 0
Ga 31.8069 19.8825 14.28792 0.0 0.0 0.0 0
O 39.8339 34.5513 16.49499 0.0 0.0 0.0 0
O 2.5849 18.6765 13.61156 0.0 0.0 0.0 0
O 49.9485 8.81183 18.60119 0.0 0.0 0.0 0
Ga 29.9121 7.60332 23.746 0.0 0.0 0.0 1
O 7.46759 17.8757 11.91503 0.0 0.0 0.0 0
Ga 46.5714 38.1936 10.65212 0.0 0.0 0.0 0
O 44.1923 38.3963 21.2732 0.0 0.0 0.0 2
O 14.3613 38.1379 33.4682 0.0 0.0 0.0 2
Ga 27.552 26.3301 23.6535 0.0 0.0 0.0 2
O 0.390059 26.0818 26.4495 0.0 0.0 0.0 2
O 1.84783 49.4701 32.1177 0.0 0.0 0.0 2
O 35.6042 30.7787 21.0774 0.0 0.0 0.0 2
O 42.5673 17.0715 17.79303 0.0 0.0 0.0 0
Ga 23.8725 5.25083 21.7312 0.0 0.0 0.0 1
O 47.8911 39.5023 27.68 0.0 0.0 0.0 2
Ga 27.9281 31.7167 34.8682 0.0 0.0 0.0 2
O 18.8255 10.5278 17.98123 0.0 0.0 0.0 0
O 47.9187 44.5654 27.0229 0.0 0.0 0.0 2
O 41.445 0.300732 32.9383 0.0 0.0 0.0 1
Ga 28.0196 3.25159 23.5716 0.0 0.0 0.0 1
O 13.1967 8.7541 11.0983 0.0 0.0 0.0 0
O 2.81609 17.6344 33.8937 0.0 0.0 0.0 1
Ga 48.7913 13.0576 14.52984 0.0 0.0 0.0 0
O 36.7664 2.21372 17.94464 0.0 0.0 0.0 0
O 6.40577 16.9167 14.48512 0.0 0.0 0.0 0
Ga 9.81395 42.7385 25.8919 0.0 0.0 0.0 2
Ga 14.535 46.8749 31.7121 0.0 0.0 0.0 2
O 23.0242 37.8858 28.6079 0.0 0.0 0.0 2
O 31.5003 47.118 31.1884 0.0 0.0 0.0 2
O 11.0336 31.6113 27.8073 0.0 0.0 0.0 2
Ga 27.7272 38.2754 28.9867 0.0 0.0 0.0 2
Ga 18.9441 28.7023 34.3831 0.0 0.0 0.0 2
O 33.1314 35.4886 10.874804 0.0 0.0 0.0 0
O 3.3557 31.5693 31.8137 0.0 0.0 0.0 2
Ga 42.7867 4.84486 10.143013 0.0 0.0 0.0 0
O 16.6746 39.3532 22.5402 0.0 0.0 0.0 2
O 36.3412 30.2879 29.1702 0.0 0.0 0.0 2
Ga 19.0455 11.8926 33.6636 0.0 0.0 0.0 1
Ga 1.62191 14.8979 28.1659 0.0 0.0 0.0 1
O 17.1661 36.5187 18.03809 0.0 0.0 0.0 0
Ga 18.4689 31.2738 10.836382 0.0 0.0 0.0 0
O 33.2783 40.7923 23.9426 0.0 0.0 0.0 2
O 38.1781 27.6014 28.5962 0.0 0.0 0.0 2
Ga 30.9412 14.3545 32.2942 0.0 0.0 0.0 1
O 36.9845 13.6594 26.495 0.0 0.0 0.0 1
O 5.59066 21.1288 21.4342 0.0 0.0 0.0 1
Ga 5.46036 42.2132 18.62501 0.0 0.0 0.0 0
O 15.0283 30.5135 34.8595 0.0 0.0 0.0 2
O 45.276 24.9988 16.52763 0.0 0.0 0.0 0
O 12.9658 48.3911 24.3347 0.0 0.0 0.0 2
O 43.5951 13.5276 22.2098 0.0 0.0 0.0 1
Ga 4.66089 49.1774 22.833 0.0 0.0 0.0 2
O 21.4453 47.6802 31.2613 0.0 0.0 0.0 2
O 15.8034 8.49199 10.128768 0.0 0.0 0.0 0
Ga 8.01615 37.0487 15.52322 0.0 0.0 0.0 0
O 46.8553 44.4919 33.0098 0.0 0.0 0.0 2
Ga 48.6327 45.583 25.5249 0.0 0.0 0.0 2
O 24.5071 2.0015 23.7391 0.0 0.0 0.0 1
Ga 37.7916 10.842 23.6344 0.0 0.0 0.0 1
O 25.3134 37.9037 25.677 0.0 0.0 0.0 2
O 13.2193 49.5683 26.6786 0.0 0.0 0.0 2
Ga 21.0159 4.00539 33.5225 0.0 0.0 0.0 1
O 13.0428 16.1758 25.1077 0.0 0.0 0.0 1
Ga 26.5896 35.3917 20.8705 0.0 0.0 0.0 2
O 3.34067 13.6212 20.591 0.0 0.0 0.0 1
Ga 40.5325 47.5635 10.571321 0.0 0.0 0.0 0
O 5.72219 48.5257 12.15893 0.0 0.0 0.0 0
O 19.4411 29.3373 32.5547 0.0 0.0 0.0 2
Ga 23.4953 41.4092 29.3633 0.0 0.0 0.0 2
O 37.3657 30.4225 32.0318 0.0 0.0 0.0 2
O 7.86133 0.581462 32.8239 0.0 0.0 0.0 1
O 7.0291 9.01726 16.86489 0.0 0.0 0.0 0
Ga 30.9201 17.0959 29.5418 0.0 0.0 0.0 1
O 1.33323 33.0721 28.4184 0.0 0.0 0.0 2
Ga 22.8498 8.1994 27.593 0.0 0.0 0.0 1
O 45.0371 18.355 29.0816 0.0 0.0 0.0 1
Ga 25.6128 34.783 17.23679 0.0 0.0 0.0 0
O 2.34017 9.79552 21.3737 0.0 0.0 0.0 1
Ga 41.5009 1.90422 18.38197 0.0 0.0 0.0 0
O 35.1196 17.9668 34.9732 0.0 0.0 0.0 1
Ga 5.84889 8.42231 13.44136 0.0 0.0 0.0 0
Ga 7.60321 48.6473 28.4719 0.0 0.0 0.0 2
O 18.748 45.389 24.2301 0.0 0.0 0.0 2
O 31.7181 4.89115 32.5437 0.0 0.0 0.0 1
O 46.0141 45.6505 15.57673 0.0 0.0 0.0 0
O 39.3151 23.027 31.3484 0.0 0.0 0.0 1
Ga 4.77419 16.3227 15.07093 0.0 0.0 0.0 0
O 8.06594 12.4198 22.1949 0.0 0.0 0.0 1
O 38.5459 48.1396 34.7873 0.0 0.0 0.0 2
O 18.0038 38.765 12.70522 0.0 0.0 0.0 0
Ga 16.0931 38.902 12.64229 0.0 0.0 0.0 0
O 21.7582 10.1704 34.3689 0.0 0.0 0.0 1
O 47.2562 19.0145 21.3893 0.0 0.0 0.0 1
Ga 18.3096 41.4276 32.7343 0.0 0.0 0.0 2
O 6.37893 18.3067 22.1876 0.0 0.0 0.0 1
Ga 48.3762 49.3614 16.81464 0.0 0.0 0.0 0
Ga 6.80675 46.8914 24.1372 0.0 0.0 0.0 2
O 14.0786 11.8698 18.35372 0.0 0.0 0.0 0
O 31.5705 43.5575 19.75267 0.0 0.0 0.0 0
Ga 36.5397 41.9349 24.0751 0.0 0.0 0.0 2
O 42.3107 2.82293 16.9238 0.0 0.0 0.0 0
Ga 14.8535 13.4524 17.84892 0.0 0.0 0.0 0
O 1.94708 33.4089 21.882 0.0 0.0 0.0 2
Ga 43.2707 31.7796 34.2923 0.0 0.0 0.0 2
Ga 16.8114 17.469 24.261 0.0 0.0 0.0 1
O 42.91 7.826 14.34451 0.0 0.0 0.0 0
Ga 10.8749 15.7997 12.18457 0.0 0.0 0.0 0
Ga 31.2296 16.8476 26.5526 0.0 0.0 0.0 1
O 4.46971 5.80599 17.51419 0.0 0.0 0.0 0
O 27.2153 31.7156 14.60788 0.0 0.0 0.0 0
O 27.9241 15.1388 28.4786 0.0 0.0 0.0 1
Ga 43.0594 44.2919 19.17943 0.0 0.0 0.0 0
O 28.3598 11.2999 23.8296 0.0 0.0 0.0 1
Ga 3.50874 45.7894 10.346864 0.0 0.0 0.0 0
O 46.0695 14.5879 10.266122 0.0 0.0 0.0 0
O 48.8194 42.6285 31.9676 0.0 0.0 0.0 2
O 42.3994 34.0089 11.65365 0.0 0.0 0.0 0
O 28.3687 19.6341 31.8085 0.0 0.0 0.0 1
Ga 42.9839 32.9827 13.17955 0.0 0.0 0.0 0
Ga 38.5211 36.4911 22.4015 0.0 0.0 0.0 2
O 25.398 3.53996 15.9925 0.0 0.0 0.0 0
O 38.3798 3.98653 19.30332 0.0 0.0 0.0 0
Ga 41.984 17.8799 28.8366 0.0 0.0 0.0 1
O 18.1217 12.8222 29.9284 0.0 0.0 0.0 1
Ga 26.8875 6.55713 23.3776 0.0 0.0 0.0 1
O 20.417 30.7411 18.417 0.0 0.0 0.0 0
Ga 38.1799 29.8318 12.77842 0.0 0.0 0.0 0
O 32.4463 11.0875 32.7401 0.0 0.0 0.0 1
Ga 21.4077 0.519691 28.7623 0.0 0.0 0.0 1
O 24.9031 38.8433 22.8745 0.0 0.0 0.0 2
O 47.7326 0.0397583 29.5614 0.0 0.0 0.0 1
Ga 8.44794 44.524 20.3029 0.0 0.0 0.0 2
O 39.2501 19.3849 14.65066 0.0 0.0 0.0 0
Ga 47.2094 30.1484 23.8353 0.0 0.0 0.0 2
O 46.9909 43.1049 23.7813 0.0 0.0 0.0 2
Ga 14.3415 37.3949 15.25988 0.0 0.0 0.0 0
O 7.9796 44.6656 28.5093 0.0 0.0 0.0 2
O 11.0063 34.4177 29.2341 0.0 0.0 0.0 2
Ga 10.3128 21.4771 20.7933 0.0 0.0 0.0 1
Ga 24.0748 15.4869 34.5829 0.0 0.0 0.0 1
O 21.0025 26.9273 14.42246 0.0 0.0 0.0 0
Ga 36.7137 28.4275 29.24 0.0 0.0 0.0 2
Ga 34.0902 29.4525 28.7367 0.0 0.0 0.0 2
Ga 25.9936 42.3196 34.3381 0.0 0.0 0.0 2
O 16.2545 13.6356 19.17648 0.0 0.0 0.0 0
O 46.7685 10.5393 31.9802 0.0 0.0 0.0 1
Ga 18.0891 4.4508 14.81956 0.0 0.0 0.0 0
O 14.6078 36.8512 27.1688 0.0 0.0 0.0 2
O 41.6097 38.805 17.71085 0.0 0.0 0.0 0
O 27.2687 40.1624 17.56299 0.0 0.0 0.0 0
Ga 14.9004 27.033 10.161932 0.0 0.0 0.0 0
O 40.9052 48.2925 12.30489 0.0 0.0 0.0 0
O 39.3046 38.4765 34.3004 0.0 0.0 0.0 2
Ga 12.9655 22.6668 28.5757 0.0 0.0 0.0 1
O 36.7529 39.4235 16.6137 0.0 0.0 0.0 0
O 21.9194 17.0963 29.5469 0.0 0.0 0.0 1
O 31.7561 38.9398 22.381 0.0 0.0 0.0 2
Ga 20.7449 42.8876 25.8528 0.0 0.0 0.0 2
Ga 35.8881 24.4955 27.4342 0.0 0.0 0.0 1
O 16.5402 19.039 20.2233 0.0 0.0 0.0 1
O 37.7045 46.2349 14.26113 0.0 0.0 0.0 0
Ga 11.0976 47.6634 31.5222 0.0 0.0 0.0 2
O 13.673 7.81129 21.5886 0.0 0.0 0.0 1
Ga 33.1985 40.3859 10.984865 0.0 0.0 0.0 0
O 16.8503 4.54439 33.9031 0.0 0.0 0.0 1
O 18.1118 9.26015 23.7266 0.0 0.0 0.0 1
Ga 44.2444 19.1735 30.7397 0.0 0.0 0.0 1
O 0.756072 32.4226 11.75541 0.0 0.0 0.0 0
O 2.64545 25.1175 28.2071 0.0 0.0 0.0 2
Ga 23.1006 0.562764 16.27118 0.0 0.0 0.0 0
O 29.4191 44.4705 31.8298 0.0 0.0 0.0 2
O 35.8047 25.1886 32.3761 0.0 0.0 0.0 2
O 4.51212 15.8371 22.0964 0.0 0.0 0.0 1
O 10.7383 6.458 24.7818 0.0 0.0 0.0 1
Ga 16.9599 48.4571 31.2321 0.0 0.0 0.0 2
O 0.93009 21.1332 34.6108 0.0 0.0 0.0 1
Ga 22.7775 32.5619 24.45 0.0 0.0 0.0 2
O 30.69 49.9493 14.12969 0.0 0.0 0.0 0
O 7.52703 16.6441 32.8581 0.0 0.0 0.0 1
O 28.3733 4.79676 16.62843 0.0 0.0 0.0 0
O 22.8301 48.8796 19.19978 0.0 0.0 0.0 0
Ga 28.2657 23.0554 20.9357 0.0 0.0 0.0 1
O 2.09991 23.1089 22.165 0.0 0.0 0.0 1
O 35.8295 34.2475 20.1598 0.0 0.0 0.0 2
Ga 24.5866 12.4128 32.1256 0.0 0.0 0.0 1
O 34.5115 15.0188 24.8869 0.0 0.0 0.0 1
O 37.4384 20.0684 10.0716816 0.0 0.0 0.0 0
Ga 6.52363 36.4298 18.3967 0.0 0.0 0.0 0
O 3.35345 22.6535 28.5208 0.0 0.0 0.0 1
Ga 14.2554 14.6888 24.6423 0.0 0.0 0.0 1
O 8.31076 19.7023 31.8609 0.0 0.0 0.0 1
O 38.9429 28.3262 33.7771 0.0 0.0 0.0 2
Ga 44.8435 13.8463 19.08352 0.0 0.0 0.0 0
O 8.06693 19.2808 25.3631 0.0 0.0 0.0 1
Ga 25.274 2.21561 19.89219 0.0 0.0 0.0 0
O 5.85213 23.7577 33.3048 0.0 0.0 0.0 1
O 3.00768 48.1373 11.26436 0.0 0.0 0.0 0
O 45.0394 43.6158 26.2267 0.0 0.0 0.0 2
Ga 34.4131 7.20932 13.77816 0.0 0.0 0.0 0
O 28.8609 1.41815 12.54793 0.0 0.0 0.0 0
O 4.80458 13.7604 30.1401 0.0 0.0 0.0 1
Ga 3.68586 6.45057 11.95906 0.0 0.0 0.0 0
O 1.63682 6.98061 31.0799 0.0 0.0 0.0 1
O 47.0389 4.2713 24.8002 0.0 0.0 0.0 1
Ga 0.295933 17.9894 14.1732 0.0 0.0 0.0 0
O 0.708991 42.2691 13.71891 0.0 0.0 0.0 0
O 4.65399 21.7514 13.37576 0.0 0.0 0.0 0
O 44.8715 7.75955 11.90903 0.0 0.0 0.0 0
Ga 24.3961 25.6605 14.17654 0.0 0.0 0.0 0
O 0.441634 7.25284 15.08899 0.0 0.0 0.0 0
Ga 24.7649 25.887 11.16779 0.0 0.0 0.0 0
O 19.4421 8.59847 16.09524 0.0 0.0 0.0 0
O 11.0274 44.5838 17.88984 0.0 0.0 0.0 0
O 29.9201 20.2765 29.2846 0.0 0.0 0.0 1
Ga 6.40684 34.207 20.8063 0.0 0.0 0.0 2
Ga 29.3277 31.0883 25.0772 0.0 0.0 0.0 2
O 32.1654 35.3097 19.60646 0.0 0.0 0.0 0
O 39.4587 3.48963 16.32332 0.0 0.0 0.0 0
O 23.7679 21.198 21.6098 0.0 0.0 0.0 1
Ga 44.242 2.50217 23.2719 0.0 0.0 0.0 1
Ga 48.2668 26.6906 30.4201 0.0 0.0 0.0 2
O 13.059 40.8399 17.73672 0.0 0.0 0.0 0
Ga 44.0784 47.0712 18.43183 0.0 0.0 0.0 0
Ga 35.8685 26.7858 12.09316 0.0 0.0 0.0 0
O 33.5303 23.6333 16.20087 0.0 0.0 0.0 0
O 18.4736 47.7132 30.0999 0.0 0.0 0.0 2
O 9.62682 46.2719 12.68286 0.0 0.0 0.0 0
O 30.1246 33.0198 18.97302 0.0 0.0 0.0 0
O 0.923012 48.9596 13.64466 0.0 0.0 0.0 0
Ga 32.921 23.2983 14.37208 0.0 0.0 0.0 0
O 31.6436 24.3468 26.486 0.0 0.0 0.0 1
O 22.0563 14.1996 28.4534 0.0 0.0 0.0 1
O 40.9605 26.4599 29.4764 0.0 0.0 0.0 2
Ga 43.1684 21.2478 17.51067 0.0 0.0 0.0 0
O 34.0053 3.87457 33.2077 0.0 0.0 0.0 1
O 46.2729 4.90892 15.73318 0.0 0.0 0.0 0
O 26.83 43.827 33.4877 0.0 0.0 0.0 2
O 32.4211 31.0922 16.38317 0.0 0.0 0.0 0
O 5.18155 6.99086 34.8839 0.0 0.0 0.0 1
Ga 0.585816 24.213 22.0811 0.0 0.0 0.0 1
O 30.9429 41.9666 22.3744 0.0 0.0 0.0 2
Ga 44.1933 47.2976 28.6865 0.0 0.0 0.0 2
O 7.64391 15.4443 22.4526 0.0 0.0 0.0 1
O 30.4476 9.50165 20.6901 0.0 0.0 0.0 1
Ga 33.9 31.5755 11.1048 0.0 0.0 0.0 0
O 38.746 46.9591 11.26962 0.0 0.0 0.0 0
Ga 42.9652 9.8953 17.36644 0.0 0.0 0.0 0
O 37.0351 8.29258 17.36644 0.0 0.0 0.0 0
O 35.1824 6.34076 33.5809 0.0 0.0 0.0 1
Ga 35.4359 21.7199 34.8796 0.0 0.0 0.0 1
Ga 20.1692 10.5006 26.9495 0.0 0.0 0.0 1
O 34.6988 38.4829 23.2197 0.0 0.0 0.0 2
Ga 48.028 17.2615 26.7185 0.0 0.0 0.0 1
Ga 29.9264 17.5862 14.02347 0.0 0.0 0.0 0
O 21.2333 46.9008 28.3237 0.0 0.0 0.0 2
Ga 25.2392 17.9386 34.7282 0.0 0.0 0.0 1
O 39.9516 17.822 25.6222 0.0 0.0 0.0 1
Ga 38.474 14.9085 14.18239 0.0 0.0 0.0 0
Ga 38.4213 14.2488 34.1437 0.0 0.0 0.0 1
O 0.240921 40.9218 11.13813 0.0 0.0 0.0 0
Ga 30.7897 30.4475 16.77346 0.0 0.0 0.0 0
O 36.6999 29.6971 34.6803 0.0 0.0 0.0 2
O 11.1568 9.91316 23.1248 0.0 0.0 0.0 1
Ga 17.4551 19.8769 29.4861 0.0 0.0 0.0 1
Ga 9.14366 14.0724 22.1528 0.0 0.0 0.0 1
O 25.4678 43.4892 11.40987 0.0 0.0 0.0 0
O 40.0617 7.87656 12.38041 0.0 0.0 0.0 0
O 7.06132 18.3525 27.6864 0.0 0.0 0.0 1
O 22.8426 8.67644 29.5969 0.0 0.0 0.0 1
Ga 31.7149 34.192 10.976313 0.0 0.0 0.0 0
Ga 20.7485 18.8044 10.826517 0.0 0.0 0.0 0
O 16.9148 27.6401 24.7573 0.0 0.0 0.0 2
O 23.5157 15.9555 11.16025 0.0 0.0 0.0 0
Ga 49.327 1.33961 23.3982 0.0 0.0 0.0 1
Ga 35.7222 30.6523 31.096 0.0 0.0 0.0 2
O 16.816 8.27206 31.793 0.0 0.0 0.0 1
Ga 17.6403 43.2015 24.3189 0.0 0.0 0.0 2
Ga 44.7437 4.95167 29.5419 0.0 0.0 0.0 1
O 0.890246 11.1963 24.1055 0.0 0.0 0.0 1
O 0.791628 10.1162 26.9857 0.0 0.0 0.0 1
Ga 32.0674 23.813 17.37417 0.0 0.0 0.0 0
Ga 34.2427 22.3783 21.3391 0.0 0.0 0.0 1
O 8.18933 32.7137 14.07574 0.0 0.0 0.0 0
O 33.7573 30.4701 30.4231 0.0 0.0 0.0 2
Ga 16.532 17.2673 11.99171 0.0 0.0 0.0 0
O 6.38381 40.8849 14.68255 0.0 0.0 0.0 0
Ga 23.1843 33.4863 18.94583 0.0 0.0 0.0 0
O 9.47443 5.52952 27.3456 0.0 0.0 0.0 1
Ga 7.62691 24.3103 25.2471 0.0 0.0 0.0 1
O 27.6166 17.3648 26.2918 0.0 0.0 0.0 1
O 17.6721 2.54786 18.58404 0.0 0.0 0.0 0
O 25.7983 15.2333 18.84858 0.0 0.0 0.0 0
O 22.8625 38.5508 26.0883 0.0 0.0 0.0 2
O 1.06784 21.2616 24.4003 0.0 0.0 0.0 1
Ga 43.4153 16.9324 25.6937 0.0 0.0 0.0 1
O 24.8717 9.09946 32.3328 0.0 0.0 0.0 1
O 20.6128 16.2243 21.1619 0.0 0.0 0.0 1
Ga 21.5754 14.7242 33.2104 0.0 0.0 0.0 1
O 42.4891 36.8726 20.1807 0.0 0.0 0.0 2
Ga 6.63552 14.9865 32.7257 0.0 0.0 0.0 1
O 22.8119 17.2463 14.84575 0.0 0.0 0.0 0
Ga 15.662 24.8541 31.3688 0.0 0.0 0.0 1
O 23.9405 40.5575 24.6576 0.0 0.0 0.0 2
Ga 32.9488 15.091 23.8166 0.0 0.0 0.0 1
O 21.5069 8.38741 11.10808 0.0 0.0 0.0 0
O 43.8586 36.4426 24.6462 0.0 0.0 0.0 2
O 21.3626 28.1392 30.5048 0.0 0.0 0.0 2
O 25.9227 41.9784 19.33509 0.0 0.0 0.0 0
Ga 21.4927 12.2587 31.725 0.0 0.0 0.0 1
O 44.5842 27.2431 21.4075 0.0 0.0 0.0 2
Ga 39.9968 3.29234 10.479764 0.0 0.0 0.0 0
O 26.0885 24.4444 26.201 0.0 0.0 0.0 1
O 7.84721 23.0271 16.89525 0.0 0.0 0.0 0
Ga 22.3209 26.5238 30.0349 0.0 0.0 0.0 2
O 5.20203 38.1909 32.6905 0.0 0.0 0.0 2
O 40.1041 7.34068 25.3786 0.0 0.0 0.0 1
Ga 33.8047 0.263683 17.96225 0.0 0.0 0.0 0
O 14.3304 1.37627 23.8766 0.0 0.0 0.0 1
Ga 47.2349 45.6767 10.0460906 0.0 0.0 0.0 0
Ga 11.1711 17.2353 18.31243 0.0 0.0 0.0 0
O 43.9647 49.4989 34.1353 0.0 0.0 0.0 2
O 25.9037 24.2495 31.4416 0.0 0.0 0.0 1
Ga 5.96246 44.7698 30.4997 0.0 0.0 0.0 2
O 37.6356 40.9036 25.2411 0.0 0.0 0.0 2
O 24.6749 28.1168 20.9628 0.0 0.0 0.0 2
O 14.6821 6.42266 33.9979 0.0 0.0 0.0 1
Ga 1.17267 39.3576 11.0358 0.0 0.0 0.0 0
Ga 31.6741 28.7018 25.4473 0.0 0.0 0.0 2
O 0.203114 38.6152 26.199 0.0 0.0 0.0 2
O 36.665 10.5461 26.8332 0.0 0.0 0.0 1
Ga 23.846 42.7561 12.55822 0.0 0.0 0.0 0
O 1.95996 9.71868 14.75034 0.0 0.0 0.0 0
O 4.30317 25.8604 33.3 0.0 0.0 0.0 2
O 45.8187 22.9008 33.4816 0.0 0.0 0.0 1
O 20.656 36.9996 13.81828 0.0 0.0 0.0 0
O 41.6537 44.061 23.16 0.0 0.0 0.0 2
O 33.8009 0.702538 13.31197 0.0 0.0 0.0 0
O 29.9622 49.2854 11.3549 0.0 0.0 0.0 0
Ga 11.8544 19.2415 28.4262 0.0 0.0 0.0 1
O 15.1457 48.7832 32.0191 0.0 0.0 0.0 2
O 43.1051 16.3051 21.5562 0.0 0.0 0.0 1
Ga 0.27035 24.482 31.8003 0.0 0.0 0.0 1
Ga 37.2431 48.1918 10.606677 0.0 0.0 0.0 0
O 38.0434 11.8251 30.8503 0.0 0.0 0.0 1
O 18.7193 31.1912 23.8264 0.0 0.0 0.0 2
O 40.1438 47.2969 29.8235 0.0 0.0 0.0 2
O 26.8342 35.6287 32.8886 0.0 0.0 0.0 2
Ga 18.7545 46.4332 33.5819 0.0 0.0 0.0 2
O 17.9672 18.8859 27.9389 0.0 0.0 0.0 1
Ga 38.146 13.6529 30.9761 0.0 0.0 0.0 1
O 37.4028 36.3294 20.9231 0.0 0.0 0.0 2
O 33.7783 40.5849 31.6139 0.0 0.0 0.0 2
Ga 47.9736 20.8621 30.6639 0.0 0.0 0.0 1
O 44.6293 27.5375 26.2083 0.0 0.0 0.0 2
Ga 26.4524 9.77474 31.3768 0.0 0.0 0.0 1
O 6.40552 37.1301 16.36313 0.0 0.0 0.0 0
Ga 49.0373 26.797 23.1474 0.0 0.0 0.0 2
O 41.3388 17.6942 15.58163 0.0 0.0 0.0 0
Ga 43.9825 0.0626252 29.3123 0.0 0.0 0.0 1
O 6.61773 23.7757 22.343 0.0 0.0 0.0 1
O 32.197 4.9271 12.17404 0.0 0.0 0.0 0
Ga 28.8143 47.025 15.38898 0.0 0.0 0.0 0
O 1.38129 4.14619 16.94339 0.0 0.0 0.0 0
Ga 38.5338 2.84896 17.7574 0.0 0.0 0.0 0
O 16.6026 17.9157 29.9132 0.0 0.0 0.0 1
O 27.7652 8.28471 31.9563 0.0 0.0 0.0 1
O 37.3045 43.5451 33.1286 0.0 0.0 0.0 2
Ga 33.4887 44.1468 33.7312 0.0 0.0 0.0 2
O 3.69358 36.1614 13.39559 0.0 0.0 0.0 0
O 27.7303 48.974 18.01914 0.0 0.0 0.0 0
Ga 3.24843 10.0745 33.6529 0.0 0.0 0.0 1
O 23.2732 42.94 19.96543 0.0 0.0 0.0 0
O 7.79317 46.1918 34.7082 0.0 0.0 0.0 2
Ga 28.0388 4.23453 10.627507 0.0 0.0 0.0 0
Ga 44.6312 15.8808 14.28153 0.0 0.0 0.0 0
O 22.9737 13.8842 34.2444 0.0 0.0 0.0 1
Ga 0.22721 28.6294 10.302375 0.0 0.0 0.0 0
O 19.5763 3.53786 24.4067 0.0 0.0 0.0 1
O 49.2971 9.66976 15.87581 0.0 0.0 0.0 0
Ga 28.9831 27.9294 20.7752 0.0 0.0 0.0 2
O 43.3636 27.5568 28.7716 0.0 0.0 0.0 2
O 24.8591 38.4947 10.469426 0.0 0.0 0.0 0
Ga 4.74453 25.3241 31.4918 0.0 0.0 0.0 2
O 3.55846 0.50626 27.1336 0.0 0.0 0.0 1
Ga 4.36168 47.2923 28.3854 0.0 0.0 0.0 2
Ga 14.7197 32.9625 31.5365 0.0 0.0 0.0 2
Ga 5.8465 5.94465 18.87049 0.0 0.0 0.0 0
O 11.8946 38.7884 24.5595 0.0 0.0 0.0 2
O 43.81 37.2119 28.2421 0.0 0.0 0.0 2
Ga 30.7087 38.9728 20.6313 0.0 0.0 0.0 2
O 16.5245 15.3218 17.02443 0.0 0.0 0.0 0
O 40.3708 45.5327 14.11645 0.0 0.0 0.0 0
O 7.07114 27.2163 33.5294 0.0 0.0 0.0 2
Ga 29.874 44.8054 33.6376 0.0 0.0 0.0 2
O 7.75576 48.8437 16.7217 0.0 0.0 0.0 0
Ga 3.41279 26.8788 28.7991 0.0 0.0 0.0 2
O 33.1038 10.4502 25.3461 0.0 0.0 0.0 1
Ga 33.2323 32.8876 16.16837 0.0 0.0 0.0 0
O 11.6955 41.4296 30.7036 0.0 0.0 0.0 2
Ga 42.2207 39.127 15.96721 0.0 0.0 0.0 0
Ga 2.74401 9.57617 27.9721 0.0 0.0 0.0 1
O 38.9584 9.95294 11.09716 0.0 0.0 0.0 0
Ga 44.6489 4.42502 14.94251 0.0 0.0 0.0 0
O 45.8953 6.00494 23.2142 0.0 0.0 0.0 1
O 9.0207 30.5631 19.01763 0.0 0.0 0.0 0
Ga 36.2904 6.59761 16.53993 0.0 0.0 0.0 0
Ga 1.93419 41.9965 15.15634 0.0 0.0 0.0 0
Ga 48.9526 41.9868 14.22481 0.0 0.0 0.0 0
O 28.7111 45.9616 34.3536 0.0 0.0 0.0 2
O 32.089 22.3597 18.55199 0.0 0.0 0.0 0
Ga 32.2635 12.3696 22.2605 0.0 0.0 0.0 1
O 15.4068 1.75696 27.1159 0.0 0.0 0.0 1
Ga 27.7199 6.76201 33.031 0.0 0.0 0.0 1
O 7.04992 41.585 27.91 0.0 0.0 0.0 2
Ga 15.8494 5.74948 12.96037 0.0 0.0 0.0 0
O 5.44167 18.4682 33.1069 0.0 0.0 0.0 1
Ga 5.68257 7.75672 10.191893 0.0 0.0 0.0 0
Ga 25.8797 32.0011 20.1508 0.0 0.0 0.0 2
Ga 7.68055 16.6971 28.4106 0.0 0.0 0.0 1
O 2.02824 43.4591 28.3539 0.0 0.0 0.0 2
O 25.3473 38.8505 16.06267 0.0 0.0 0.0 0
O 18.1083 25.6447 18.09319 0.0 0.0 0.0 0
Ga 31.4668 48.4358 10.742514 0.0 0.0 0.0 0
O 42.723 22.3781 30.185 0.0 0.0 0.0 1
Ga 28.6997 6.14394 18.05532 0.0 0.0 0.0 0
O 24.0627 32.3537 34.7893 0.0 0.0 0.0 2
O 4.27105 28.4964 11.93106 0.0 0.0 0.0 0
Ga 5.60074 17.3256 18.61168 0.0 0.0 0.0 0
O 19.2324 44.5611 29.5759 0.0 0.0 0.0 2
Ga 23.1464 40.935 34.2607 0.0 0.0 0.0 2
O 44.0289 43.8858 32.245 0.0 0.0 0.0 2
Ga 0.217175 5.42405 14.64355 0.0 0.0 0.0 0
Ga 44.3684 17.4376 33.4122 0.0 0.0 0.0 1
O 13.2077 37.4927 13.66186 0.0 0.0 0.0 0
Ga 16.6127 17.2911 21.0342 0.0 0.0 0.0 1
O 38.7312 14.4735 29.3406 0.0 0.0 0.0 1
Ga 10.8541 18.7378 22.4051 0.0 0.0 0.0 1
O 3.73571 34.0158 26.9919 0.0 0.0 0.0 2
Ga 38.4065 46.3306 20.5524 0.0 0.0 0.0 2
O 41.3049 38.2746 14.57803 0.0 0.0 0.0 0
Ga 19.2242 33.5719 16.88259 0.0 0.0 0.0 0
Ga 11.7068 9.93638 27.4167 0.0 0.0 0.0 1
O 36.3814 23.3221 26.2456 0.0 0.0 0.0 1
Ga 35.0163 10.4617 25.8249 0.0 0.0 0.0 1
O 10.2621 31.7277 33.4961 0.0 0.0 0.0 2
Ga 5.16199 30.2723 23.5235 0.0 0.0 0.0 2
Ga 26.2604 40.3319 22.9032 0.0 0.0 0.0 2
O 1.01945 32.2105 18.22188 0.0 0.0 0.0 0
O 4.6729 11.0226 29.5224 0.0 0.0 0.0 1
O 47.0847 31.9811 24.2436 0.0 0.0 0.0 2
O 48.8401 3.2264 22.7894 0.0 0.0 0.0 1
O 14.6286 23.3648 24.8872 0.0 0.0 0.0 1
Ga 28.1441 43.1519 25.5736 0.0 0.0 0.0 2
O 10.7837 47.9812 14.62783 0.0 0.0 0.0 0
Ga 16.7076 12.7704 28.6767 0.0 0.0 0.0 1
O 26.5053 3.82284 31.2214 0.0 0.0 0.0 1
O 17.6308 44.0885 16.86673 0.0 0.0 0.0 0
O 23.3738 11.9672 23.0619 0.0 0.0 0.0 1
O 16.845 45.8651 28.8736 0.0 0.0 0.0 2
O 49.9462 28.4017 34.0305 0.0 0.0 0.0 2
O 8.60902 40.6224 30.5776 0.0 0.0 0.0 2
O 6.95712 16.7256 24.6564 0.0 0.0 0.0 1
Ga 47.3062 32.8963 30.8494 0.0 0.0 0.0 2
O 18.9707 43.073 22.9141 0.0 0.0 0.0 2
Ga 31.8108 5.86504 22.4273 0.0 0.0 0.0 1
O 38.3813 32.314 30.217 0.0 0.0 0.0 2
Ga 2.7573 16.3853 22.8003 0.0 0.0 0.0 1
O 42.2073 36.6857 10.843917 0.0 0.0 0.0 0
Ga 47.6244 38.8523 13.68961 0.0 0.0 0.0 0
O 16.5588 9.60511 16.5402 0.0 0.0 0.0 0
O 16.1916 27.7647 16.51817 0.0 0.0 0.0 0
O 16.792 23.1913 22.13 0.0 0.0 0.0 1
O 7.18371 22.1899 19.799 0.0 0.0 0.0 0
O 18.6057 48.1544 32.5354 0.0 0.0 0.0 2
O 3.87096 47.2789 32.5983 0.0 0.0 0.0 2
Ga 27.664 27.7738 29.3736 0.0 0.0 0.0 2
O 22.2696 40.764 28.0714 0.0 0.0 0.0 2
Ga 30.4093 30.1824 22.5073 0.0 0.0 0.0 2
Ga 26.8959 36.819 13.18373 0.0 0.0 0.0 0
O 35.9365 22.9546 18.32177 0.0 0.0 0.0 0
O 20.3102 23.399 27.3575 0.0 0.0 0.0 1
Ga 48.4307 25.6515 20.0275 0.0 0.0 0.0 2
Ga 40.7816 39.0993 22.2536 0.0 0.0 0.0 2
O 48.79 49.5172 32.5134 0.0 0.0 0.0 2
Ga 31.151 17.5533 23.3622 0.0 0.0 0.0 1
Ga 46.6024 48.9734 19.16823 0.0 0.0 0.0 0
O 24.3052 14.7852 13.75151 0.0 0.0 0.0 0
O 32.7092 17.4734 30.0985 0.0 0.0 0.0 1
O 44.1989 32.4265 16.81721 0.0 0.0 0.0 0
O 14.2829 31.0789 31.4742 0.0 0.0 0.0 2
O 13.3155 38.7046 30.3769 0.0 0.0 0.0 2
Ga 20.2262 5.04692 16.76099 0.0 0.0 0.0 0
Ga 18.4915 17.0963 28.5614 0.0 0.0 0.0 1
O 36.6087 19.5084 16.28369 0.0 0.0 0.0 0
Ga 45.5605 14.8497 26.4993 0.0 0.0 0.0 1
O 23.9632 21.6875 15.97285 0.0 0.0 0.0 0
Ga 44.1649 34.6394 31.6578 0.0 0.0 0.0 2
O 6.32549 30.5377 18.49196 0.0 0.0 0.0 0
Ga 3.39289 22.2146 14.91779 0.0 0.0 0.0 0
Ga 31.1743 15.7853 10.928999 0.0 0.0 0.0 0
Ga 37.3857 37.6545 16.61177 0.0 0.0 0.0 0
O 11.4888 20.8191 10.0772099 0.0 0.0 0.0 0
Ga 12.3868 13.0529 22.4034 0.0 0.0 0.0 1
O 23.456 23.18 32.2069 0.0 0.0 0.0 1
Ga 17.7733 36.3464 32.2441 0.0 0.0 0.0 2
Ga 9.46873 35.3828 29.5849 0.0 0.0 0.0 2
O 33.0984 27.8739 10.954296 0.0 0.0 0.0 0
O 34.3539 7.15627 17.04339 0.0 0.0 0.0 0
O 46.6373 16.3099 27.526 0.0 0.0 0.0 1
Ga 3.6991 37.892 27.2326 0.0 0.0 0.0 2
O 22.8114 48.7233 16.07762 0.0 0.0 0.0 0
O 39.6707 36.3329 18.8538 0.0 0.0 0.0 0
Ga 4.04525 16.5237 32.5374 0.0 0.0 0.0 1
O 12.8729 19.2154 11.93116 0.0 0.0 0.0 0
Ga 0.757777 33.9193 10.594908 0.0 0.0 0.0 0
O 3.36893 39.4335 30.8348 0.0 0.0 0.0 2
O 12.6699 8.99251 13.83539 0.0 0.0 0.0 0
Ga 16.3722 29.3358 12.42973 0.0 0.0 0.0 0
O 17.8518 3.13156 31.6906 0.0 0.0 0.0 1
Ga 48.1656 25.9218 34.7614 0.0 0.0 0.0 2
O 48.8593 19.8155 17.12294 0.0 0.0 0.0 0
Ga 1.77633 21.6637 32.6815 0.0 0.0 0.0 1
O 24.5527 5.97862 18.24006 0.0 0.0 0.0 0
Ga 21.6514 24.6482 10.322043 0.0 0.0 0.0 0
O 33.8495 6.22297 30.6963 0.0 0.0 0.0 1
Ga 13.3997 40.559 30.7308 0.0 0.0 0.0 2
O 44.4649 20.9093 13.38312 0.0 0.0 0.0 0
Ga 0.859701 36.4232 28.4764 0.0 0.0 0.0 2
O 34.3613 22.4169 13.55135 0.0 0.0 0.0 0
Ga 38.4831 26.2411 21.1286 0.0 0.0 0.0 2
Ga 37.6535 36.559 31.4781 0.0 0.0 0.0 2
O 32.7565 16.1381 34.9 0.0 0.0 0.0 1
Ga 21.377 17.938 22.2614 0.0 0.0 0.0 1
O 25.3406 13.7052 29.0606 0.0 0.0 0.0 1
O 42.6773 14.3122 10.935269 0.0 0.0 0.0 0
Ga 22.9751 34.524 27.3816 0.0 0.0 0.0 2
O 21.8462 32.438 15.95906 0.0 0.0 0.0 0
O 36.8367 47.9599 24.6294 0.0 0.0 0.0 2
O 15.7679 26.24 26.6453 0.0 0.0 0.0 2
Ga 45.7473 44.3236 24.6408 0.0 0.0 0.0 2
O 43.653 32.8911 31.2474 0.0 0.0 0.0 2
O 43.6693 0.482615 31.1666 0.0 0.0 0.0 1
O 23.0411 46.6843 33.1663 0.0 0.0 0.0 2
O 47.9101 34.1071 18.51272 0.0 0.0 0.0 0
Ga 24.1467 36.6714 18.81152 0.0 0.0 0.0 0
Ga 9.60815 7.44577 23.4291 0.0 0.0 0.0 1
O 15.8767 49.7318 25.17 0.0 0.0 0.0 2
O 33.8303 17.5439 11.9509 0.0 0.0 0.0 0
O 3.13071 35.4211 19.89998 0.0 0.0 0.0 0
Ga 48.5932 43.6135 22.6955 0.0 0.0 0.0 2
O 11.7701 29.0891 23.0409 0.0 0.0 0.0 2
Ga 42.9901 49.4385 32.5042 0.0 0.0 0.0 2
O 0.477418 6.50874 17.45456 0.0 0.0 0.0 0
Ga 10.0808 1.68619 28.7827 0.0 0.0 0.0 1
O 16.1473 17.6905 15.86735 0.0 0.0 0.0 0
O 35.0284 49.9863 20.7077 0.0 0.0 0.0 2
O 29.499 34.1918 33.4691 0.0 0.0 0.0 2
O 1.92484 15.3702 16.40983 0.0 0.0 0.0 0
O 29.4693 0.339269 32.36 0.0 0.0 0.0 1
Ga 30.245 38.9392 34.494 0.0 0.0 0.0 2
O 40.3995 26.9565 16.96173 0.0 0.0 0.0 0
Ga 31.8461 11.292 30.9613 0.0 0.0 0.0 1
O 15.5329 42.3181 11.62415 0.0 0.0 0.0 0
O 6.16849 49.8614 14.71769 0.0 0.0 0.0 0
Ga 1.78873 12.9749 24.0681 0.0 0.0 0.0 1
O 32.9304 33.3145 14.25438 0.0 0.0 0.0 0
Ga 25.3803 14.0928 15.38797 0.0 0.0 0.0 0
O 36.9715 20.8675 13.68949 0.0 0.0 0.0 0
O 23.7017 26.5867 15.84899 0.0 0.0 0.0 0
O 49.9368 21.3331 10.698045 0.0 0.0 0.0 0
O 14.7974 32.0378 28.2702 0.0 0.0 0.0 2
O 11.1251 1.27199 23.7151 0.0 0.0 0.0 1
O 45.2192 12.8057 31.917 0.0 0.0 0.0 1
Ga 33.3061 5.75226 16.60427 0.0 0.0 0.0 0
O 0.735737 13.692 26.905 0.0 0.0 0.0 1
Ga 14.4074 14.3174 34.1355 0.0 0.0 0.0 1
O 3.08955 19.6613 29.3484 0.0 0.0 0.0 1
O 28.4551 27.6809 12.76532 0.0 0.0 0.0 0
O 31.9698 45.5425 14.70394 0.0 0.0 0.0 0
O 8.0549 22.0043 14.59171 0.0 0.0 0.0 0
O 44.014 38.4064 15.80124 0.0 0.0 0.0 0
Ga 49.3539 23.1179 10.150802 0.0 0.0 0.0 0
O 26.5038 8.8253 10.608668 0.0 0.0 0.0 0
O 42.526 2.82085 26.2658 0.0 0.0 0.0 1
O 33.778 32.8157 22.1949 0.0 0.0 0.0 2
O 26.2232 31.5253 24.416 0.0 0.0 0.0 2
O 30.4935 5.38371 29.7145 0.0 0.0 0.0 1
O 5.31558 26.746 28.4375 0.0 0.0 0.0 2
O 3.65432 48.2453 21.5106 0.0 0.0 0.0 2
Ga 20.6063 42.0482 14.06266 0.0 0.0 0.0 0
Ga 18.1263 10.6649 16.28264 0.0 0.0 0.0 0
Ga 13.4207 16.5826 13.61588 0.0 0.0 0.0 0
O 12.9557 5.84362 16.82578 0.0 0.0 0.0 0
Ga 20.5915 16.5445 30.8617 0.0 0.0 0.0 1
O 10.8713 1.38818 33.4957 0.0 0.0 0.0 1
Ga 5.40659 44.0276 21.0467 0.0 0.0 0.0 2
O 49.7131 18.1963 19.60256 0.0 0.0 0.0 0
Ga 42.1112 48.1584 20.974 0.0 0.0 0.0 2
O 18.9628 3.88903 29.1024 0.0 0.0 0.0 1
Ga 38.4113 13.6604 25.0519 0.0 0.0 0.0 1
Ga 37.4692 19.3915 14.67085 0.0 0.0 0.0 0
O 5.43922 23.9781 17.77327 0.0 0.0 0.0 0
O 4.0784 23.2366 11.00944 0.0 0.0 0.0 0
Ga 13.9497 19.1275 31.3078 0.0 0.0 0.0 1
O 34.0067 20.8031 20.3319 0.0 0.0 0.0 1
O 7.11211 30.0491 12.93124 0.0 0.0 0.0 0
O 7.16837 4.53403 12.29166 0.0 0.0 0.0 0
O 37.8284 6.58228 32.7595 0.0 0.0 0.0 1
O 2.80798 46.901 14.19848 0.0 0.0 0.0 0
O 31.3109 7.51572 12.09194 0.0 0.0 0.0 0
Ga 39.1615 4.07569 28.0572 0.0 0.0 0.0 1
Ga 1.60679 13.6446 18.95183 0.0 0.0 0.0 0
O 40.7784 26.1282 32.3436 0.0 0.0 0.0 2
Ga 38.5387 29.7486 34.9329 0.0 0.0 0.0 2
O 42.4695 1.38583 28.7857 0.0 0.0 0.0 1
Ga 36.4357 3.51008 15.06636 0.0 0.0 0.0 0
Ga 6.63427 47.5542 16.04005 0.0 0.0 0.0 0
O 11.7886 21.7836 16.88787 0.0 0.0 0.0 0
Ga 29.2995 42.7724 30.9593 0.0 0.0 0.0 2
O 26.0565 25.6436 17.41861 0.0 0.0 0.0 0
Ga 10.0082 33.676 33.6598 0.0 0.0 0.0 2
O 14.2316 48.2567 10.711659 0.0 0.0 0.0 0
Ga 19.0583 20.5044 13.29158 0.0 0.0 0.0 0
Ga 11.1564 45.4865 26.1957 0.0 0.0 0.0 2
Ga 31.6876 6.15233 26.0528 0.0 0.0 0.0 1
Ga 47.1699 2.26087 33.8096 0.0 0.0 0.0 1
O 24.4324 25.0561 34.0787 0.0 0.0 0.0 2
O 37.3121 48.888 13.14562 0.0 0.0 0.0 0
Ga 32.5925 20.7249 17.65896 0.0 0.0 0.0 0
O 36.2526 45.1813 25.0862 0.0 0.0 0.0 2
Ga 14.6205 30.5634 29.6068 0.0 0.0 0.0 2
O 13.3053 36.3127 24.806 0.0 0.0 0.0 2
O 23.7993 9.18695 21.2723 0.0 0.0 0.0 1
O 9.54473 16.6653 28.2069 0.0 0.0 0.0 1
O 42.4081 47.9194 31.6719 0.0 0.0 0.0 2
Ga 32.6154 9.50739 28.6112 0.0 0.0 0.0 1
O 9.57736 41.1401 14.09137 0.0 0.0 0.0 0
O 38.1697 18.5358 34.4896 0.0 0.0 0.0 1
Ga 20.9411 29.7038 29.5215 0.0 0.0 0.0 2
O 36.1238 28.1149 31.001 0.0 0.0 0.0 2
Ga 15.2889 27.0163 20.1877 0.0 0.0 0.0 2
O 30.4972 29.0002 20.9816 0.0 0.0 0.0 2
O 33.2935 18.6074 32.6531 0.0 0.0 0.0 1
O 24.9438 40.5932 30.3995 0.0 0.0 0.0 2
Ga 43.301 8.92657 24.3652 0.0 0.0 0.0 1
Ga 14.6754 26.1962 25.0862 0.0 0.0 0.0 2
O 5.40979 25.3874 12.69275 0.0 0.0 0.0 0
Ga 2.01731 29.3308 28.2937 0.0 0.0 0.0 2
O 46.3074 20.5218 18.50567 0.0 0.0 0.0 0
Ga 40.1493 43.6503 19.98273 0.0 0.0 0.0 0
O 35.5037 43.8423 15.01634 0.0 0.0 0.0 0
Ga 38.6468 25.683 26.6784 0.0 0.0 0.0 2
O 11.7504 23.2021 26.9653 0.0 0.0 0.0 1
O 10.4488 25.8999 27.3961 0.0 0.0 0.0 2
Ga 31.5799 46.3167 29.3915 0.0 0.0 0.0 2
O 26.2563 1.72711 13.60532 0.0 0.0 0.0 0
O 11.5775 30.1372 20.054 0.0 0.0 0.0 2
O 36.1062 27.5742 33.4549 0.0 0.0 0.0 2
Ga 40.5364 47.6283 18.48062 0.0 0.0 0.0 0
Ga 18.795 34.3549 12.2224 0.0 0.0 0.0 0
Ga 16.844 41.9418 34.9523 0.0 0.0 0.0 2
O 2.23037 28.9285 31.6422 0.0 0.0 0.0 2
O 14.4121 40.9192 32.3 0.0 0.0 0.0 2
O 42.6948 19.4125 29.5789 0.0 0.0 0.0 1
Ga 34.0387 27.7718 23.9613 0.0 0.0 0.0 2
O 36.0645 9.30574 21.3611 0.0 0.0 0.0 1
O 8.20744 1.55545 29.1141 0.0 0.0 0.0 1
O 22.8312 27.3564 26.3841 0.0 0.0 0.0 2
O 15.6772 45.6149 18.09814 0.0 0.0 0.0 0
O 35.8292 36.0745 31.1529 0.0 0.0 0.0 2
Ga 36.058 9.3372 14.38432 0.0 0.0 0.0 0
O 27.1481 36.3587 25.1815 0.0 0.0 0.0 2
O 27.6466 10.5565 28.9522 0.0 0.0 0.0 1
O 39.0638 24.8332 25.0621 0.0 0.0 0.0 1
Ga 43.5826 6.83168 12.91513 0.0 0.0 0.0 0
O 27.6598 10.8068 32.3206 0.0 0.0 0.0 1
O 27.7428 34.7072 14.27505 0.0 0.0 0.0 0
Ga 42.8331 48.9621 16.25569 0.0 0.0 0.0 0
O 34.1625 25.9584 22.2973 0.0 0.0 0.0 2
Ga 16.6194 35.9769 28.9816 0.0 0.0 0.0 2
O 5.21223 21.0116 28.3237 0.0 0.0 0.0 1
O 17.6268 37.6026 33.785 0.0 0.0 0.0 2
Ga 44.7103 16.4912 28.9645 0.0 0.0 0.0 1
O 2.04509 43.4358 23.4951 0.0 0.0 0.0 2
Ga 17.211 36.9163 10.54609 0.0 0.0 0.0 0
O 47.7934 31.9927 13.0364 0.0 0.0 0.0 0
O 15.6117 11.3118 27.8176 0.0 0.0 0.0 1
Ga 49.5 32.9372 18.98112 0.0 0.0 0.0 0
Ga 33.7219 32.5145 30.1869 0.0 0.0 0.0 2
O 26.022 29.1807 23.4885 0.0 0.0 0.0 2
Ga 10.7341 20.2548 16.81285 0.0 0.0 0.0 0
O 27.2853 4.52685 34.2973 0.0 0.0 0.0 1
Ga 13.9435 2.45034 32.8936 0.0 0.0 0.0 1
O 41.7367 23.5892 10.0896071 0.0 0.0 0.0 0
Ga 27.171 20.2821 22.5914 0.0 0.0 0.0 1
O 28.6859 16.3451 13.22807 0.0 0.0 0.0 0
O 17.8219 31.8078 27.6852 0.0 0.0 0.0 2
O 43.8707 4.79618 34.1884 0.0 0.0 0.0 1
Ga 48.5231 28.4182 32.7872 0.0 0.0 0.0 2
O 7.55951 14.0342 31.4173 0.0 0.0 0.0 1
O 14.9415 16.0935 34.6773 0.0 0.0 0.0 1
O 35.0329 39.7724 10.595537 0.0 0.0 0.0 0
Ga 29.5723 37.2144 18.62634 0.0 0.0 0.0 0
O 44.3118 37.7424 18.35822 0.0 0.0 0.0 0
O 31.4199 25.7124 31.631 0.0 0.0 0.0 2
Ga 16.3138 3.9688 21.7075 0.0 0.0 0.0 1
O 21.1754 5.9897 29.6472 0.0 0.0 0.0 1
O 5.44428 34.3261 33.7647 0.0 0.0 0.0 2
O 13.7695 0.356284 19.33485 0.0 0.0 0.0 0
O 20.4841 31.5434 26.2261 0.0 0.0 0.0 2
Ga 19.8218 22.5918 16.33946 0.0 0.0 0.0 0
O 38.1969 2.5968 23.627 0.0 0.0 0.0 1
Ga 18.5025 30.603 18.22103 0.0 0.0 0.0 0
O 42.6949 1.03978 13.1397 0.0 0.0 0.0 0
Ga 37.1533 6.014 34.4993 0.0 0.0 0.0 1
Ga 0.0665766 45.5796 11.01801 0.0 0.0 0.0 0
O 24.9626 8.58931 19.2232 0.0 0.0 0.0 0
O 9.9212 15.7831 31.6279 0.0 0.0 0.0 1
O 35.8866 32.4771 13.17959 0.0 0.0 0.0 0
Ga 46.8068 6.48778 34.2096 0.0 0.0 0.0 1
O 44.5839 33.2507 24.4156 0.0 0.0 0.0 2
Ga 11.3794 43.0583 29.7397 0.0 0.0 0.0 2
O 43.2038 41.2495 30.5393 0.0 0.0 0.0 2
O 27.4893 39.5392 26.9237 0.0 0.0 0.0 2
O 27.0648 3.13237 11.69327 0.0 0.0 0.0 0
O 26.1264 37.4776 28.4589 0.0 0.0 0.0 2
O 3.90649 36.6013 25.8972 0.0 0.0 0.0 2
O 4.96169 6.08022 10.539317 0.0 0.0 0.0 0
O 26.8578 32.8122 33.3768 0.0 0.0 0.0 2
Ga 32.0629 13.5639 29.1154 0.0 0.0 0.0 1
O 46.3892 49.0399 26.0865 0.0 0.0 0.0 2
O 38.6081 11.8506 24.996 0.0 0.0 0.0 1
Ga 1.95367 36.2415 16.3353 0.0 0.0 0.0 0
O 19.5517 31.9452 21.416 0.0 0.0 0.0 2
O 30.7195 8.93426 24.8992 0.0 0.0 0.0 1
Ga 41.8392 6.53886 25.3457 0.0 0.0 0.0 1
O 42.581 25.8685 11.53329 0.0 0.0 0.0 0
Ga 4.32158 14.4299 12.66409 0.0 0.0 0.0 0
Ga 39.7738 10.4656 18.21663 0.0 0.0 0.0 0
O 5.19898 39.6067 17.10049 0.0 0.0 0.0 0
O 8.47648 6.15945 22.8016 0.0 0.0 0.0 1
Ga 15.5704 3.34779 10.621423 0.0 0.0 0.0 0
O 15.4256 23.1094 11.27135 0.0 0.0 0.0 0
O 38.5374 40.2033 19.03309 0.0 0.0 0.0 0
Ga 22.1497 34.0246 11.33938 0.0 0.0 0.0 0
O 15.6839 2.14972 29.8952 0.0 0.0 0.0 1
Ga 33.2517 43.4496 19.06675 0.0 0.0 0.0 0
O 35.606 17.9383 24.91 0.0 0.0 0.0 1
Ga 46.6935 32.2871 17.78204 0.0 0.0 0.0 0
O 41.6846 12.5998 26.7792 0.0 0.0 0.0 1
Ga 30.0066 14.5669 23.0403 0.0 0.0 0.0 1
O 14.8909 30.877 20.2006 0.0 0.0 0.0 2
O 44.9799 7.08536 17.89875 0.0 0.0 0.0 0
Ga 18.9927 8.51903 13.91388 0.0 0.0 0.0 0
O 26.1709 36.1563 11.51695 0.0 0.0 0.0 0
O 26.2872 3.38948 18.51073 0.0 0.0 0.0 0
O 0.867971 49.0267 20.1911 0.0 0.0 0.0 2
Ga 9.52776 1.16073 20.344 0.0 0.0 0.0 1
O 0.82307 40.7821 16.30165 0.0 0.0 0.0 0
O 45.6493 32.9868 19.1049 0.0 0.0 0.0 0
Ga 19.2215 17.8582 34.1223 0.0 0.0 0.0 1
O 41.7019 17.2771 10.414892 0.0 0.0 0.0 0
Ga 37.6216 14.2741 10.845944 0.0 0.0 0.0 0
O 21.9264 2.34449 33.3499 0.0 0.0 0.0 1
O 34.9228 18.3769 28.0775 0.0 0.0 0.0 1
Ga 49.5441 7.93203 16.71091 0.0 0.0 0.0 0
O 14.4404 17.5564 17.72783 0.0 0.0 0.0 0
Ga 39.6986 10.9257 30.4695 0.0 0.0 0.0 1
O 44.5183 15.5904 33.5592 0.0 0.0 0.0 1
Ga 34.8822 26.9038 32.1352 0.0 0.0 0.0 2
O 31.5643 37.364 17.35544 0.0 0.0 0.0 0
O 32.5852 36.4978 22.2398 0.0 0.0 0.0 2
Ga 24.8726 27.784 22.7966 0.0 0.0 0.0 2
O 26.3609 38.963 32.3834 0.0 0.0 0.0 2
Ga 23.1623 25.0966 32.6819 0.0 0.0 0.0 2
O 15.4621 25.1295 16.90151 0.0 0.0 0.0 0
Ga 39.9688 42.9242 27.0566 0.0 0.0 0.0 2
Ga 3.94425 7.70745 23.0461 0.0 0.0 0.0 1
O 21.8109 5.18513 25.1926 0.0 0.0 0.0 1
O 31.5039 23.9033 33.9389 0.0 0.0 0.0 1
O 5.76224 0.536239 23.5365 0.0 0.0 0.0 1
Ga 43.4275 28.687 25.4483 0.0 0.0 0.0 2
O 21.7489 25.0298 33.9737 0.0 0.0 0.0 2
O 21.5209 25.9693 28.371 0.0 0.0 0.0 2
Ga 28.5692 34.0984 18.7265 0.0 0.0 0.0 0
O 46.2951 30.9951 10.863349 0.0 0.0 0.0 0
Ga 34.4359 48.9594 26.9057 0.0 0.0 0.0 2
O 37.9672 17.6737 20.0434 0.0 0.0 0.0 1
O 24.1096 19.3865 16.64123 0.0 0.0 0.0 0
Ga 17.8486 21.9181 23.2517 0.0 0.0 0.0 1
Ga 43.2689 49.16 10.0960681 0.0 0.0 0.0 0
O 32.1965 8.63622 15.27755 0.0 0.0 0.0 0
O 45.7999 38.0861 26.0408 0.0 0.0 0.0 2
Ga 32.1679 46.8313 32.9491 0.0 0.0 0.0 2
O 21.5747 46.0752 23.1487 0.0 0.0 0.0 2
O 46.4297 5.49438 32.7036 0.0 0.0 0.0 1
Ga 15.4475 19.0334 17.12516 0.0 0.0 0.0 0
O 37.909 4.01282 14.03294 0.0 0.0 0.0 0
O 17.2137 46.7075 10.140184 0.0 0.0 0.0 0
Ga 3.77357 17.6995 12.09877 0.0 0.0 0.0 0
O 24.19 33.4687 17.3939 0.0 0.0 0.0 0
O 26.8509 5.7563 11.10368 0.0 0.0 0.0 0
Ga 46.2026 17.1459 24.0133 0.0 0.0 0.0 1
O 46.2288 47.1574 10.77861 0.0 0.0 0.0 0
Ga 26.8809 16.8614 18.93329 0.0 0.0 0.0 0
Ga 1.03074 45.4711 31.9418 0.0 0.0 0.0 2
O 37.7187 15.1982 12.55843 0.0 0.0 0.0 0
Ga 28.4514 42.3769 15.02739 0.0 0.0 0.0 0
O 32.0645 47.0533 11.81436 0.0 0.0 0.0 0
Ga 2.08271 43.9659 21.3694 0.0 0.0 0.0 2
Ga 17.2141 39.7024 24.388 0.0 0.0 0.0 2
O 36.1602 32.2443 18.71926 0.0 0.0 0.0 0
O 48.381 18.1789 28.4262 0.0 0.0 0.0 1
Ga 25.5422 0.973837 22.7546 0.0 0.0 0.0 1
O 41.8101 24.6069 16.89094 0.0 0.0 0.0 0
O 46.9684 35.1287 23.8245 0.0 0.0 0.0 2
Ga 4.90507 22.23 33.1462 0.0 0.0 0.0 1
O 45.1843 8.91612 24.0394 0.0 0.0 0.0 1
O 42.5294 20.9202 10.354613 0.0 0.0 0.0 0
O 31.8972 15.9715 32.1045 0.0 0.0 0.0 1
O 22.5625 6.14343 20.4365 0.0 0.0 0.0 1
O 39.0357 32.3886 17.79505 0.0 0.0 0.0 0
Ga 40.8806 7.83518 14.14451 0.0 0.0 0.0 0
O 29.0716 37.1853 28.4944 0.0 0.0 0.0 2
Ga 16.5129 45.1563 13.67138 0.0 0.0 0.0 0
O 17.2867 31.0307 12.45301 0.0 0.0 0.0 0
O 49.525 33.5938 23.1718 0.0 0.0 0.0 2
Ga 18.2966 42.6237 29.8915 0.0 0.0 0.0 2
Ga 19.3203 12.7363 10.896093 0.0 0.0 0.0 0
O 48.0946 11.9905 23.0324 0.0 0.0 0.0 1
Ga 15.2422 6.20435 25.4543 0.0 0.0 0.0 1
O 31.5594 10.5787 12.85554 0.0 0.0 0.0 0
O 49.8476 45.015 30.4562 0.0 0.0 0.0 2
O 43.818 41.1869 32.94 0.0 0.0 0.0 2
O 46.6373 33.6492 11.26049 0.0 0.0 0.0 0
O 12.8918 1.93731 26.2158 0.0 0.0 0.0 1
Ga 25.2018 33.5977 33.8123 0.0 0.0 0.0 2
Ga 41.7722 41.2904 20.4574 0.0 0.0 0.0 2
O 18.1391 9.10554 12.2376 0.0 0.0 0.0 0
Ga 20.3406 9.6263 21.0939 0.0 0.0 0.0 1
Ga 5.35762 31.034 15.01263 0.0 0.0 0.0 0
O 5.32729 12.6711 13.51849 0.0 0.0 0.0 0
O 13.603 25.1518 12.37912 0.0 0.0 0.0 0
O 2.51508 42.871 16.70596 0.0 0.0 0.0 0
Ga 6.22535 49.5696 33.2738 0.0 0.0 0.0 2
Ga 16.8257 45.5979 19.9508 0.0 0.0 0.0 0
O 7.64076 13.6156 24.6867 0.0 0.0 0.0 1
O 29.3208 39.5053 13.09006 0.0 0.0 0.0 0
Ga 5.87718 10.2709 16.07182 0.0 0.0 0.0 0
O 29.4658 31.0545 34.0034 0.0 0.0 0.0 2
O 36.9852 45.052 20.4947 0.0 0.0 0.0 2
O 9.62769 42.2216 27.8736 0.0 0.0 0.0 2
Ga 49.1284 31.4841 11.72581 0.0 0.0 0.0 0
Ga 49.4379 47.8578 13.18369 0.0 0.0 0.0 0
Ga 25.9691 25.5823 20.8063 0.0 0.0 0.0 2
O 2.56526 2.71623 12.43768 0.0 0.0 0.0 0
Ga 32.3688 16.9871 16.1065 0.0 0.0 0.0 0
O 1.42809 25.8519 32.3359 0.0 0.0 0.0 2
Ga 1.02388 42.1418 29.1915 0.0 0.0 0.0 2
Ga 40.7106 4.49499 30.9406 0.0 0.0 0.0 1
O 38.9168 34.7762 23.0657 0.0 0.0 0.0 2
Ga 46.1446 29.9348 34.1729 0.0 0.0 0.0 2
O 38.2162 22.5424 20.5386 0.0 0.0 0.0 1
O 15.0174 14.1183 32.3305 0.0 0.0 0.0 1
O 27.6195 46.8978 20.1632 0.0 0.0 0.0 2
Ga 16.2592 32.16 19.81442 0.0 0.0 0.0 0
Ga 16.0616 49.7678 17.74276 0.0 0.0 0.0 0
O 43.475 49.3305 21.3206 0.0 0.0 0.0 2
Ga 11.2202 43.1371 19.19561 0.0 0.0 0.0 0
O 44.8597 26.1129 23.9456 0.0 0.0 0.0 2
O 9.95785 32.1124 21.4537 0.0 0.0 0.0 2
O 33.7364 12.3531 17.98696 0.0 0.0 0.0 0
O 42.0454 28.4549 31.1665 0.0 0.0 0.0 2
Ga 14.3448 44.1686 18.8488 0.0 0.0 0.0 0
O 26.9756 6.53815 18.63648 0.0 0.0 0.0 0
O 27.837 13.8548 20.1002 0.0 0.0 0.0 1
O 41.9611 38.155 23.324 0.0 0.0 0.0 2
O 43.3111 10.7352 25.0918 0.0 0.0 0.0 1
O 28.6625 36.3183 12.54592 0.0 0.0 0.0 0
O 35.8685 10.7816 23.8815 0.0 0.0 0.0 1
O 16.9289 43.7523 30.8673 0.0 0.0 0.0 2
Ga 23.114 27.5122 20.0721 0.0 0.0 0.0 2
O 33.5219 17.6752 17.71385 0.0 0.0 0.0 0
Ga 26.6739 41.1792 29.9282 0.0 0.0 0.0 2
O 8.09183 45.6406 23.4364 0.0 0.0 0.0 2
O 14.5474 33.0737 23.6653 0.0 0.0 0.0 2
O 47.8253 14.9324 22.6304 0.0 0.0 0.0 1
Ga 22.2335 31.4075 26.9945 0.0 0.0 0.0 2
O 24.7302 10.3677 14.46095 0.0 0.0 0.0 0
Ga 41.9054 24.0376 12.12312 0.0 0.0 0.0 0
Ga 36.4021 44.4457 22.1189 0.0 0.0 0.0 2
O 2.52143 30.9133 27.1325 0.0 0.0 0.0 2
O 6.09216 7.09113 14.80853 0.0 0.0 0.0 0
Ga 14.4381 34.9868 23.8225 0.0 0.0 0.0 2
O 9.9989 19.7152 21.0102 0.0 0.0 0.0 1
Ga 14.9792 10.4015 17.49419 0.0 0.0 0.0 0
O 18.7783 34.7804 32.8936 0.0 0.0 0.0 2
O 30.8353 49.6843 30.2713 0.0 0.0 0.0 2
Ga 36.1707 35.8522 24.736 0.0 0.0 0.0 2
O 28.4702 6.44404 21.9899 0.0 0.0 0.0 1
O 14.2695 38.0511 22.6813 0.0 0.0 0.0 2
Ga 13.7383 7.61994 17.52112 0.0 0.0 0.0 0
O 28.0371 42.8766 16.82509 0.0 0.0 0.0 0
Ga 43.3048 46.5661 23.9307 0.0 0.0 0.0 2
Ga 12.9055 36.0139 26.7209 0.0 0.0 0.0 2
Ga 25.0765 15.2881 12.146 0.0 0.0 0.0 0
Ga 41.2751 38.0671 25.037 0.0 0.0 0.0 2
O 3.89023 2.54664 32.1902 0.0 0.0 0.0 1
Ga 46.5201 8.01294 18.07482 0.0 0.0 0.0 0
O 42.2367 41.0226 15.7428 0.0 0.0 0.0 0
Ga 23.2502 9.28691 19.2121 0.0 0.0 0.0 0
O 2.65933 44.5847 32.1447 0.0 0.0 0.0 2
O 7.47398 14.312 14.78758 0.0 0.0 0.0 0
Ga 30.7536 25.6519 13.03615 0.0 0.0 0.0 0
O 26.8799 32.9825 10.36314 0.0 0.0 0.0 0
Ga 16.1134 11.4013 33.9197 0.0 0.0 0.0 1
O 18.2401 19.8585 31.2869 0.0 0.0 0.0 1
O 16.2791 48.9197 29.2029 0.0 0.0 0.0 2
O 12.0887 41.1536 34.3976 0.0 0.0 0.0 2
O 27.6431 29.7359 29.34 0.0 0.0 0.0 2
Ga 43.6537 44.9209 30.6724 0.0 0.0 0.0 2
O 44.1622 13.6258 25.896 0.0 0.0 0.0 1
O 12.345 15.1899 33.4802 0.0 0.0 0.0 1
Ga 7.29369 8.5817 18.70319 0.0 0.0 0.0 0
O 30.2522 26.1891 14.81123 0.0 0.0 0.0 0
Ga 18.2973 38.5619 27.6745 0.0 0.0 0.0 2
O 23.6403 27.466 29.0089 0.0 0.0 0.0 2
O 21.9371 5.33633 12.32692 0.0 0.0 0.0 0
O 45.8896 36.0283 20.1107 0.0 0.0 0.0 2
O 5.42769 40.8719 25.887 0.0 0.0 0.0 2
O 23.3399 19.0987 28.5393 0.0 0.0 0.0 1
O 43.8326 31.2099 12.06814 0.0 0.0 0.0 0
O 20.0165 22.5563 34.8928 0.0 0.0 0.0 1
Ga 12.7445 35.3196 33.2668 0.0 0.0 0.0 2
O 41.7823 46.2221 10.311608 0.0 0.0 0.0 0
O 28.9951 38.8888 32.9843 0.0 0.0 0.0 2
O 3.05911 32.4007 23.9621 0.0 0.0 0.0 2
O 37.4827 27.2754 17.73417 0.0 0.0 0.0 0
O 31.0977 28.5091 23.5854 0.0 0.0 0.0 2
Ga 35.2235 24.2076 16.86123 0.0 0.0 0.0 0
O 15.3485 13.0052 16.00615 0.0 0.0 0.0 0
O 11.5991 30.0837 11.64486 0.0 0.0 0.0 0
Ga 40.132 23.5936 20.4411 0.0 0.0 0.0 1
O 48.4351 14.0221 27.9053 0.0 0.0 0.0 1
Ga 12.577 7.08846 30.1483 0.0 0.0 0.0 1
O 13.1483 10.3357 20.7042 0.0 0.0 0.0 1
Ga 14.3177 47.8952 23.0841 0.0 0.0 0.0 2
O 37.6533 34.433 14.63337 0.0 0.0 0.0 0
O 43.1917 23.3365 33.1285 0.0 0.0 0.0 1
O 37.6089 14.5822 18.04027 0.0 0.0 0.0 0
O 25.0887 36.5588 13.92066 0.0 0.0 0.0 0
Ga 32.614 8.94335 24.5208 0.0 0.0 0.0 1
O 11.5669 32.0183 30.7692 0.0 0.0 0.0 2
O 29.8362 43.1927 34.5796 0.0 0.0 0.0 2
O 20.2513 2.05699 13.11023 0.0 0.0 0.0 0
Ga 17.3891 42.543 11.37365 0.0 0.0 0.0 0
Ga 1.04087 38.9825 17.11886 0.0 0.0 0.0 0
O 15.0839 4.07617 12.18108 0.0 0.0 0.0 0
Ga 33.6476 21.2116 27.371 0.0 0.0 0.0 1
O 34.7626 23.4931 34.6453 0.0 0.0 0.0 1
Ga 46.0271 31.8187 12.57623 0.0 0.0 0.0 0
O 14.2203 33.8615 32.9783 0.0 0.0 0.0 2
O 13.8707 6.94424 26.533 0.0 0.0 0.0 1
O 25.4393 17.8096 19.95228 0.0 0.0 0.0 0
O 17.4917 37.6409 24.4355 0.0 0.0 0.0 2
O 25.993 20.2377 18.44715 0.0 0.0 0.0 0
O 32.5084 5.42303 19.08369 0.0 0.0 0.0 0
Ga 10.5258 17.6107 15.15255 0.0 0.0 0.0 0
O 32.7712 23.5768 21.1276 0.0 0.0 0.0 1
O 41.6011 28.8925 11.19169 0.0 0.0 0.0 0
Ga 29.8883 45.3314 26.9641 0.0 0.0 0.0 2
O 3.1468 22.7289 33.4936 0.0 0.0 0.0 1
Ga 42.9957 38.5832 19.51491 0.0 0.0 0.0 0
O 34.9613 39.3604 18.60808 0.0 0.0 0.0 0
Ga 40.5214 6.98523 10.699159 0.0 0.0 0.0 0
O 44.4194 0.921801 27.02 0.0 0.0 0.0 1
O 8.59812 24.8765 19.42453 0.0 0.0 0.0 0
Ga 5.49057 2.75605 15.87598 0.0 0.0 0.0 0
O 36.9996 2.288 20.8387 0.0 0.0 0.0 1
O 10.6235 39.5451 27.3965 0.0 0.0 0.0 2
O 41.3578 8.79255 10.112697 0.0 0.0 0.0 0
Ga 0.975465 0.0656945 15.14368 0.0 0.0 0.0 0
O 9.77327 29.2564 28.5631 0.0 0.0 0.0 2
Ga 34.0604 5.8202 20.1205 0.0 0.0 0.0 1
O 1.05119 18.4164 15.81038 0.0 0.0 0.0 0
O 44.9834 12.7961 15.35262 0.0 0.0 0.0 0
Ga 15.259 39.8896 27.0593 0.0 0.0 0.0 2
O 12.921 45.8866 25.7544 0.0 0.0 0.0 2
Ga 13.1098 3.66855 25.5948 0.0 0.0 0.0 1
O 31.3561 25.9545 21.846 0.0 0.0 0.0 2
O 0.200522 18.6217 25.576 0.0 0.0 0.0 1
Ga 39.5009 22.6935 13.10119 0.0 0.0 0.0 0
O 15.3105 20.1844 12.54598 0.0 0.0 0.0 0
Ga 24.6058 39.3279 31.8186 0.0 0.0 0.0 2
O 33.6036 10.2724 20.7885 0.0 0.0 0.0 1
Ga 40.014 13.3902 28.0063 0.0 0.0 0.0 1
O 30.0851 6.9326 27.0371 0.0 0.0 0.0 1
O 33.5078 8.59194 22.9291 0.0 0.0 0.0 1
O 44.0977 9.72834 18.90586 0.0 0.0 0.0 0
O 23.5572 22.4851 18.8709 0.0 0.0 0.0 0
Ga 12.401 20.1906 24.1714 0.0 0.0 0.0 1
O 12.9537 40.8195 10.10183 0.0 0.0 0.0 0
O 0.253155 13.6335 12.33531 0.0 0.0 0.0 0
O 17.2721 23.5205 27.3337 0.0 0.0 0.0 1
O 27.8066 22.4064 27.7133 0.0 0.0 0.0 1
Ga 12.0677 42.2291 11.04071 0.0 0.0 0.0 0
O 21.8211 20.462 11.03342 0.0 0.0 0.0 0
O 11.3525 19.2712 15.39824 0.0 0.0 0.0 0
O 14.1093 46.9935 29.7955 0.0 0.0 0.0 2
Ga 37.7995 11.1906 12.01 0.0 0.0 0.0 0
O 47.9052 2.34009 10.137611 0.0 0.0 0.0 0
Ga 1.21977 32.8671 23.7206 0.0 0.0 0.0 2
O 11.4678 27.3124 29.9174 0.0 0.0 0.0 2
O 41.3111 9.03199 20.8606 0.0 0.0 0.0 1
O 30.2182 10.3845 30.3761 0.0 0.0 0.0 1
Ga 26.2538 37.3643 10.0755626 0.0 0.0 0.0 0
O 8.82082 3.46801 32.9362 0.0 0.0 0.0 1
Ga 1.17481 27.5755 25.7088 0.0 0.0 0.0 2
O 30.2028 40.0362 24.6313 0.0 0.0 0.0 2
Ga 14.6545 17.4821 33.5629 0.0 0.0 0.0 1
O 45.7527 44.4908 12.67495 0.0 0.0 0.0 0
Ga 20.3628 3.82217 27.921 0.0 0.0 0.0 1
O 16.2541 4.74824 28.4326 0.0 0.0 0.0 1
O 17.634 36.9185 21.5503 0.0 0.0 0.0 2
Ga 27.9368 49.4774 23.8124 0.0 0.0 0.0 2
O 36.6809 20.064 18.84271 0.0 0.0 0.0 0
Ga 48.2734 13.1579 18.23647 0.0 0.0 0.0 0
O 29.589 22.7147 25.3135 0.0 0.0 0.0 1
O 3.62264 36.9623 16.56255 0.0 0.0 0.0 0
O 6.40097 48.8158 21.6812 0.0 0.0 0.0 2
Ga 46.2047 15.969 11.7902 0.0 0.0 0.0 0
O 2.18076 16.2822 26.9694 0.0 0.0 0.0 1
O 27.6751 37.4548 14.92861 0.0 0.0 0.0 0
O 28.4043 3.28669 21.7075 0.0 0.0 0.0 1
O 9.55176 28.0184 11.03033 0.0 0.0 0.0 0
O 36.3463 22.3229 30.9521 0.0 0.0 0.0 1
Ga 25.4861 20.5685 10.180988 0.0 0.0 0.0 0
Ga 48.5202 28.8584 26.9378 0.0 0.0 0.0 2
Ga 20.6051 35.0755 25.5123 0.0 0.0 0.0 2
O 16.1325 34.3233 28.4049 0.0 0.0 0.0 2
O 46.7608 34.1538 29.4817 0.0 0.0 0.0 2
Ga 34.0096 43.7717 11.0916 0.0 0.0 0.0 0
O 39.9222 6.61166 30.8454 0.0 0.0 0.0 1
O 40.9871 33.8159 30.8845 0.0 0.0 0.0 2
Ga 41.6888 20.9961 29.1625 0.0 0.0 0.0 1
O 18.9012 42.4001 12.65712 0.0 0.0 0.0 0
Ga 31.4673 49.4979 15.83354 0.0 0.0 0.0 0
O 0.54806 46.5902 28.2629 0.0 0.0 0.0 2
O 29.7517 7.34676 19.19134 0.0 0.0 0.0 0
O 49.4504 3.71623 29.2113 0.0 0.0 0.0 1
Ga 31.2948 2.59302 21.4868 0.0 0.0 0.0 1
O 41.6061 32.8024 33.5553 0.0 0.0 0.0 2
O 11.2445 6.02693 29.3827 0.0 0.0 0.0 1
O 38.3967 31.5633 12.10519 0.0 0.0 0.0 0
Ga 29.4372 1.02062 10.603072 0.0 0.0 0.0 0
O 17.4963 10.1652 29.6375 0.0 0.0 0.0 1
Ga 25.6943 46.786 27.5622 0.0 0.0 0.0 2
O 14.1179 47.7351 14.06779 0.0 0.0 0.0 0
Ga 0.901282 26.4105 12.11307 0.0 0.0 0.0 0
O 40.1612 38.2432 12.28854 0.0 0.0 0.0 0
Ga 1.01158 16.8049 25.5604 0.0 0.0 0.0 1
O 32.8237 14.8763 11.4482 0.0 0.0 0.0 0
Ga 28.641 35.634 24.2789 0.0 0.0 0.0 2
Ga 41.1864 15.2342 11.59414 0.0 0.0 0.0 0
O 13.0825 14.6127 23.0825 0.0 0.0 0.0 1
Ga 44.7839 2.13312 31.4409 0.0 0.0 0.0 1
O 9.51229 36.5605 28.1639 0.0 0.0 0.0 2
O 33.5655 5.52586 27.0234 0.0 0.0 0.0 1
Ga 3.49592 18.8732 24.9326 0.0 0.0 0.0 1
O 2.92772 0.21678 19.15336 0.0 0.0 0.0 0
Ga 12.4637 16.1625 28.5551 0.0 0.0 0.0 1
O 48.3103 45.5295 11.78512 0.0 0.0 0.0 0
O 25.8926 12.7198 14.09042 0.0 0.0 0.0 0
Ga 17.9528 28.1315 20.1189 0.0 0.0 0.0 2
O 38.0968 21.8089 28.6914 0.0 0.0 0.0 1
O 15.0385 22.5121 16.43264 0.0 0.0 0.0 0
O 34.7654 31.2542 15.52876 0.0 0.0 0.0 0
O 17.5601 39.9907 26.509 0.0 0.0 0.0 2
Ga 4.67418 31.1985 18.18425 0.0 0.0 0.0 0
O 2.17523 5.44997 19.53086 0.0 0.0 0.0 0
O 39.818 0.927737 21.8164 0.0 0.0 0.0 1
Ga 9.79731 4.00685 26.2942 0.0 0.0 0.0 1
O 3.08936 20.1092 32.6871 0.0 0.0 0.0 1
O 12.2209 9.94089 33.7914 0.0 0.0 0.0 1
Ga 28.3111 6.81748 26.4679 0.0 0.0 0.0 1
O 37.8294 23.6283 14.18135 0.0 0.0 0.0 0
O 35.2068 4.32567 19.65222 0.0 0.0 0.0 0
O 9.83332 1.5152 31.0015 0.0 0.0 0.0 1
Ga 46.857 1.69686 21.5048 0.0 0.0 0.0 1
O 19.8926 12.4188 27.2402 0.0 0.0 0.0 1
Ga 10.6667 30.9642 29.4842 0.0 0.0 0.0 2
O 37.2836 38.9282 27.1302 0.0 0.0 0.0 2
Ga 7.41982 21.2935 16.3205 0.0 0.0 0.0 0
O 10.3769 10.4453 28.7559 0.0 0.0 0.0 1
Ga 16.2828 32.3996 13.49701 0.0 0.0 0.0 0
Ga 2.55893 30.8954 25.2399 0.0 0.0 0.0 2
O 43.0992 10.8613 30.7366 0.0 0.0 0.0 1
Ga 9.69333 7.22008 26.5104 0.0 0.0 0.0 1
Ga 16.9562 13.9227 15.73904 0.0 0.0 0.0 0
O 13.0038 3.629 33.9556 0.0 0.0 0.0 1
O 33.5788 37.5446 31.3922 0.0 0.0 0.0 2
O 6.17016 32.3688 31.5617 0.0 0.0 0.0 2
Ga 2.3683 48.2093 33.4576 0.0 0.0 0.0 2
O 8.5246 47.1165 27.8863 0.0 0.0 0.0 2
O 5.77725 43.7823 27.136 0.0 0.0 0.0 2
Ga 33.2164 36.0156 23.8836 0.0 0.0 0.0 2
Ga 17.3661 8.53592 22.1164 0.0 0.0 0.0 1
Ga 21.2822 5.91362 14.15019 0.0 0.0 0.0 0
O 4.63255 29.6841 33.1016 0.0 0.0 0.0 2
O 21.6148 32.7648 19.95177 0.0 0.0 0.0 0
O 15.9008 20.994 29.1407 0.0 0.0 0.0 1
O 37.8758 37.0487 29.5539 0.0 0.0 0.0 2
O 30.2607 11.7473 15.52042 0.0 0.0 0.0 0
O 33.1822 2.64821 21.7547 0.0 0.0 0.0 1
Ga 17.4966 44.7082 27.452 0.0 0.0 0.0 2
O 14.2982 8.68051 32.835 0.0 0.0 0.0 1
Ga 4.05096 16.5841 27.0148 0.0 0.0 0.0 1
O 29.8118 39.3679 16.26177 0.0 0.0 0.0 0
Ga 6.64412 27.6123 29.6526 0.0 0.0 0.0 2
Ga 29.9997 41.8261 10.707427 0.0 0.0 0.0 0
O 9.76795 16.9178 25.3887 0.0 0.0 0.0 1
O 36.8042 26.04 26.8761 0.0 0.0 0.0 2
Ga 35.4275 14.2856 29.5833 0.0 0.0 0.0 1
O 24.8606 21.3228 11.76168 0.0 0.0 0.0 0
O 6.4939 38.6352 21.3622 0.0 0.0 0.0 2
O 43.7992 23.3383 24.9797 0.0 0.0 0.0 1
O 30.6796 27.7937 26.8337 0.0 0.0 0.0 2
Ga 12.8031 4.91483 32.5512 0.0 0.0 0.0 1
O 13.3871 6.37824 31.554 0.0 0.0 0.0 1
O 30.2326 28.7231 16.04021 0.0 0.0 0.0 0
O 12.3798 34.2869 23.3574 0.0 0.0 0.0 2
O 35.2882 45.9076 22.4343 0.0 0.0 0.0 2
O 23.6969 14.5061 25.161 0.0 0.0 0.0 1
O 0.539647 23.0032 32.8731 0.0 0.0 0.0 1
O 29.3481 39.6509 21.8683 0.0 0.0 0.0 2
Ga 7.93112 25.4856 22.7071 0.0 0.0 0.0 2
O 44.2483 18.4823 11.83203 0.0 0.0 0.0 0
O 38.1696 5.67058 27.2889 0.0 0.0 0.0 1
O 0.792233 18.824 29.7577 0.0 0.0 0.0 1
O 12.65 37.0475 16.27072 0.0 0.0 0.0 0
O 3.30312 14.1315 34.7238 0.0 0.0 0.0 1
Ga 35.5091 31.0573 34.4817 0.0 0.0 0.0 2
O 27.1033 43.0355 13.87911 0.0 0.0 0.0 0
O 35.1466 10.9729 34.4555 0.0 0.0 0.0 1
Ga 35.9224 1.76028 26.9255 0.0 0.0 0.0 1
O 36.4995 18.1645 13.51404 0.0 0.0 0.0 0
O 16.4666 32.2818 25.4297 0.0 0.0 0.0 2
O 32.8036 15.4299 15.29395 0.0 0.0 0.0 0
Ga 22.2263 42.1594 17.15708 0.0 0.0 0.0 0
O 40.6868 43.7581 11.1027 0.0 0.0 0.0 0
Ga 34.6295 18.3052 13.50722 0.0 0.0 0.0 0
O 31.7166 33.8915 16.89745 0.0 0.0 0.0 0
Ga 7.05775 39.6175 17.78309 0.0 0.0 0.0 0
O 19.3091 6.53367 24.6335 0.0 0.0 0.0 1
Ga 13.2544 48.8099 20.5327 0.0 0.0 0.0 2
Ga 15.682 40.6549 21.6595 0.0 0.0 0.0 2
Ga 26.6675 4.96704 15.69293 0.0 0.0 0.0 0
O 12.0537 16.0907 19.5207 0.0 0.0 0.0 0
O 22.5326 8.20525 32.9352 0.0 0.0 0.0 1
O 30.7762 44.6342 12.40908 0.0 0.0 0.0 0
O 23.4986 12.6568 15.4368 0.0 0.0 0.0 0
O 22.6001 29.6364 13.40485 0.0 0.0 0.0 0
Ga 47.6537 41.5595 24.717 0.0 0.0 0.0 2
O 32.2868 34.4436 24.2644 0.0 0.0 0.0 2
Ga 19.6606 13.3662 25.5537 0.0 0.0 0.0 1
O 28.4387 17.2338 33.3933 0.0 0.0 0.0 1
O 24.1117 15.6627 30.1909 0.0 0.0 0.0 1
Ga 11.9821 26.6877 26.5147 0.0 0.0 0.0 2
O 38.6658 9.34008 31.1538 0.0 0.0 0.0 1
O 32.6245 26.6924 24.8035 0.0 0.0 0.0 2
Ga 11.8178 33.8143 30.7319 0.0 0.0 0.0 2
O 35.7341 13.8512 11.06465 0.0 0.0 0.0 0
O 16.8503 19.1851 25.0347 0.0 0.0 0.0 1
O 5.63582 31.8539 24.3441 0.0 0.0 0.0 2
Ga 45.3151 13.3174 29.6788 0.0 0.0 0.0 1
O 18.1763 44.0699 19.94952 0.0 0.0 0.0 0
Ga 24.7343 42.5621 24.4523 0.0 0.0 0.0 2
O 18.3453 6.84709 21.8218 0.0 0.0 0.0 1
Ga 38.6181 44.4428 14.28254 0.0 0.0 0.0 0
O 27.9509 19.442 21.0705 0.0 0.0 0.0 1
Ga 23.9418 17.4594 29.2741 0.0 0.0 0.0 1
O 16.4306 12.5894 13.65338 0.0 0.0 0.0 0
O 29.0192 21.5183 11.25762 0.0 0.0 0.0 0
Ga 4.34741 1.34734 30.738 0.0 0.0 0.0 1
Ga 39.811 28.3439 10.522976 0.0 0.0 0.0 0
O 35.3029 11.4586 31.5099 0.0 0.0 0.0 1
Ga 8.94606 40.455 27.4293 0.0 0.0 0.0 2
O 19.3575 21.1129 26.4614 0.0 0.0 0.0 1
O 44.7499 41.6592 12.23585 0.0 0.0 0.0 0
Ga 19.7788 25.3443 19.06298 0.0 0.0 0.0 0
O 15.5487 1.57577 32.8824 0.0 0.0 0.0 1
Ga 15.5525 12.3495 26.152 0.0 0.0 0.0 1
O 23.1937 49.9054 32.405 0.0 0.0 0.0 2
Ga 2.05699 34.3534 33.0094 0.0 0.0 0.0 2
Ga 2.47699 1.30153 28.3748 0.0 0.0 0.0 1
O 14.918 33.0376 12.20832 0.0 0.0 0.0 0
Ga 39.1999 36.6149 34.3528 0.0 0.0 0.0 2
O 21.3222 13.3278 20.6051 0.0 0.0 0.0 1
O 8.74095 40.6393 20.9965 0.0 0.0 0.0 2
Ga 4.54802 1.67682 18.58823 0.0 0.0 0.0 0
O 8.09384 35.8351 13.94717 0.0 0.0 0.0 0
Ga 6.72567 34.0369 32.5923 0.0 0.0 0.0 2
O 29.9701 33.1091 13.69327 0.0 0.0 0.0 0
Ga 37.3759 40.8232 27.0987 0.0 0.0 0.0 2
O 14.0979 35.4842 34.7783 0.0 0.0 0.0 2
O 42.846 2.55918 22.0424 0.0 0.0 0.0 1
O 40.0053 32.3665 23.2942 0.0 0.0 0.0 2
Ga 31.7547 31.2741 27.4856 0.0 0.0 0.0 2
O 7.24712 11.1042 14.80414 0.0 0.0 0.0 0
Ga 43.5336 34.7504 23.8619 0.0 0.0 0.0 2
O 14.2527 28.3478 21.3571 0.0 0.0 0.0 2
O 33.5856 14.5392 29.9532 0.0 0.0 0.0 1
O 2.23474 5.55628 11.0699 0.0 0.0 0.0 0
O 44.2265 47.8135 16.72834 0.0 0.0 0.0 0
O 0.943037 2.33247 24.0173 0.0 0.0 0.0 1
O 13.8492 15.6453 15.15943 0.0 0.0 0.0 0
O 5.51052 30.3848 26.7836 0.0 0.0 0.0 2
Ga 48.9999 14.496 11.22724 0.0 0.0 0.0 0
O 41.343 12.0666 23.5138 0.0 0.0 0.0 1
O 8.6855 31.8001 29.6875 0.0 0.0 0.0 2
Ga 19.4314 40.4087 16.01797 0.0 0.0 0.0 0
O 1.61309 25.8912 21.4688 0.0 0.0 0.0 2
Ga 8.00306 31.7708 31.4303 0.0 0.0 0.0 2
O 31.0325 15.2271 29.3562 0.0 0.0 0.0 1
O 10.5028 13.6515 25.7612 0.0 0.0 0.0 1
Ga 30.748 38.3242 24.0616 0.0 0.0 0.0 2
O 42.4632 25.0647 27.3366 0.0 0.0 0.0 2
O 25.9028 21.0558 31.9546 0.0 0.0 0.0 1
O 4.68512 28.5223 19.81752 0.0 0.0 0.0 0
Ga 45.1673 43.224 11.26712 0.0 0.0 0.0 0
O 37.2606 25.3601 19.81264 0.0 0.0 0.0 0
Ga 35.5244 44.0746 26.3189 0.0 0.0 0.0 2
O 39.132 45.9683 23.8319 0.0 0.0 0.0 2
O 2.48447 27.7688 34.3888 0.0 0.0 0.0 2
Ga 4.01662 38.3593 17.82691 0.0 0.0 0.0 0
O 39.9941 27.133 11.94367 0.0 0.0 0.0 0
O 39.7788 37.5633 27.7619 0.0 0.0 0.0 2
O 49.6277 46.5379 14.38287 0.0 0.0 0.0 0
Ga 41.715 13.2978 22.2292 0.0 0.0 0.0 1
O 10.7169 29.8746 25.7286 0.0 0.0 0.0 2
Ga 40.0656 4.53854 33.775 0.0 0.0 0.0 1
O 8.72152 27.2 14.00264 0.0 0.0 0.0 0
Ga 44.054 0.517782 19.83793 0.0 0.0 0.0 0
O 18.6403 42.5534 34.2331 0.0 0.0 0.0 2
O 47.16 48.6385 23.3145 0.0 0.0 0.0 2
O 33.0142 35.7931 33.3042 0.0 0.0 0.0 2
O 31.7785 20.9124 15.96183 0.0 0.0 0.0 0
Ga 3.98426 7.96788 17.42171 0.0 0.0 0.0 0
O 31.9636 39.0159 11.66893 0.0 0.0 0.0 0
Ga 43.7179 24.7109 17.5102 0.0 0.0 0.0 0
O 31.6136 22.0172 13.55116 0.0 0.0 0.0 0
O 0.203378 43.533 21.3268 0.0 0.0 0.0 2
Ga 13.1265 24.8176 21.1307 0.0 0.0 0.0 1
O 46.7921 30.417 20.409 0.0 0.0 0.0 2
Ga 29.0651 36.296 10.722067 0.0 0.0 0.0 0
O 38.7387 43.9234 18.67212 0.0 0.0 0.0 0
O 0.318096 23.7149 27.3364 0.0 0.0 0.0 1
Ga 1.40942 49.1063 18.17827 0.0 0.0 0.0 0
Ga 1.95681 39.2682 29.5687 0.0 0.0 0.0 2
O 32.6224 28.1591 29.0593 0.0 0.0 0.0 2
O 46.0533 30.0209 13.36229 0.0 0.0 0.0 0
Ga 15.0066 16.2746 16.49742 0.0 0.0 0.0 0
Ga 40.9284 7.30333 32.4135 0.0 0.0 0.0 1
O 20.711 16.8132 18.38033 0.0 0.0 0.0 0
Ga 28.9775 44.6748 17.18244 0.0 0.0 0.0 0
O 28.5325 47.5917 31.3792 0.0 0.0 0.0 2
Ga 15.0148 24.0678 15.33928 0.0 0.0 0.0 0
O 5.94266 34.5885 24.7818 0.0 0.0 0.0 2
Ga 15.263 23.5707 23.1775 0.0 0.0 0.0 1
O 0.818476 30.9444 24.4194 0.0 0.0 0.0 2
O 11.3076 8.25306 26.6339 0.0 0.0 0.0 1
O 26.9343 10.6364 12.37926 0.0 0.0 0.0 0
O 33.3429 28.2469 32.1558 0.0 0.0 0.0 2
Ga 36.5975 10.0932 17.45596 0.0 0.0 0.0 0
Ga 35.0974 2.39244 32.8596 0.0 0.0 0.0 1
O 5.9404 12.1696 16.78865 0.0 0.0 0.0 0
O 4.65281 24.6479 26.3292 0.0 0.0 0.0 1
Ga 34.2283 39.1104 30.5694 0.0 0.0 0.0 2
O 1.1505 4.69482 33.9638 0.0 0.0 0.0 1
O 32.678 19.9091 28.3917 0.0 0.0 0.0 1
Ga 18.8999 40.4564 12.43769 0.0 0.0 0.0 0
O 48.0129 30.348 15.65693 0.0 0.0 0.0 0
O 24.4135 29.8928 28.6929 0.0 0.0 0.0 2
O 0.898985 24.5699 30.0253 0.0 0.0 0.0 1
Ga 4.23511 7.30008 28.6239 0.0 0.0 0.0 1
O 7.24556 5.76998 25.5957 0.0 0.0 0.0 1
Ga 26.8475 45.5645 34.2282 0.0 0.0 0.0 2
O 38.4701 28.171 20.3877 0.0 0.0 0.0 2
Ga 48.7269 8.50777 20.7123 0.0 0.0 0.0 1
O 9.62578 37.1841 16.47523 0.0 0.0 0.0 0
O 23.6075 1.94479 27.8266 0.0 0.0 0.0 1
Ga 19.3888 37.8417 20.8804 0.0 0.0 0.0 2
O 4.27726 23.6682 20.6857 0.0 0.0 0.0 1
Ga 25.5547 12.8755 10.370674 0.0 0.0 0.0 0
O 13.0181 43.3314 33.4243 0.0 0.0 0.0 2
O 38.3955 8.23997 20.3984 0.0 0.0 0.0 1
Ga 14.0024 38.0352 28.7289 0.0 0.0 0.0 2
O 4.75511 47.9687 16.22442 0.0 0.0 0.0 0
O 25.9751 13.1627 17.10142 0.0 0.0 0.0 0
Ga 18.0506 26.0889 11.15466 0.0 0.0 0.0 0
O 12.1647 8.63014 16.89446 0.0 0.0 0.0 0
Ga 26.6231 36.1906 34.7136 0.0 0.0 0.0 2
O 45.3754 23.3541 30.5042 0.0 0.0 0.0 1
Ga 46.6264 37.9309 33.2493 0.0 0.0 0.0 2
O 13.7911 28.4753 18.55806 0.0 0.0 0.0 0
Ga 28.256 22.6255 17.83681 0.0 0.0 0.0 0
O 18.3825 38.7764 29.6356 0.0 0.0 0.0 2
Ga 10.1162 5.07423 33.6033 0.0 0.0 0.0 1
O 4.93745 21.0295 34.7059 0.0 0.0 0.0 1
O 26.4518 14.2834 11.33287 0.0 0.0 0.0 0
O 22.0941 10.455 31.4006 0.0 0.0 0.0 1
O 21.1949 13.0585 24.5037 0.0 0.0 0.0 1
O 34.0525 40.0839 21.2589 0.0 0.0 0.0 2
Ga 22.7594 6.23487 18.58363 0.0 0.0 0.0 0
O 32.9644 45.05 29.3964 0.0 0.0 0.0 2
O 24.1142 12.615 11.79729 0.0 0.0 0.0 0
O 2.83786 1.07265 21.9142 0.0 0.0 0.0 1
O 28.6178 11.563 20.9164 0.0 0.0 0.0 1
Ga 35.1907 22.7068 24.8181 0.0 0.0 0.0 1
O 16.8714 31.301 14.93388 0.0 0.0 0.0 0
Ga 7.57041 26.2689 18.81053 0.0 0.0 0.0 0
O 2.0435 5.12316 24.8728 0.0 0.0 0.0 1
O 49.8055 28.0343 24.3383 0.0 0.0 0.0 2
O 42.8566 12.4231 13.43221 0.0 0.0 0.0 0
O 31.1935 30.5836 31.7132 0.0 0.0 0.0 2
O 0.787336 47.2555 31.251 0.0 0.0 0.0 2
O 43.135 30.5411 14.82157 0.0 0.0 0.0 0
O 30.0242 28.5651 10.758013 0.0 0.0 0.0 0
O 41.2437 26.8354 14.2769 0.0 0.0 0.0 0
O 27.4533 8.73149 20.1726 0.0 0.0 0.0 1
Ga 24.997 45.0699 22.1095 0.0 0.0 0.0 2
Ga 4.11529 4.21507 28.0836 0.0 0.0 0.0 1
O 10.532 37.1033 13.77338 0.0 0.0 0.0 0
O 0.168346 47.4723 11.4451 0.0 0.0 0.0 0
Ga 30.4864 5.80885 31.5466 0.0 0.0 0.0 1
Ga 6.44393 35.801 11.28384 0.0 0.0 0.0 0
O 19.7333 23.9393 24.7845 0.0 0.0 0.0 1
O 32.8764 49.6052 10.778987 0.0 0.0 0.0 0
O 34.8874 36.892 28.4145 0.0 0.0 0.0 2
O 24.8339 23.3964 23.8128 0.0 0.0 0.0 1
O 20.8794 47.5881 25.5456 0.0 0.0 0.0 2
Ga 36.8376 4.15622 20.5413 0.0 0.0 0.0 1
O 40.295 6.31571 19.85008 0.0 0.0 0.0 0
O 40.9317 41.6889 28.2853 0.0 0.0 0.0 2
Ga 6.13243 8.54402 34.5858 0.0 0.0 0.0 1
O 13.4047 11.6844 23.186 0.0 0.0 0.0 1
Ga 10.7115 21.6734 26.3472 0.0 0.0 0.0 1
O 24.3671 24.8017 12.52785 0.0 0.0 0.0 0
O 39.6391 49.0378 24.3673 0.0 0.0 0.0 2
Ga 35.2306 41.6673 21.1561 0.0 0.0 0.0 2
Ga 0.756066 10.7897 15.66711 0.0 0.0 0.0 0
O 12.3215 21.6436 25.2065 0.0 0.0 0.0 1
Ga 12.4463 45.9083 28.9218 0.0 0.0 0.0 2
O 35.7954 25.4005 15.43607 0.0 0.0 0.0 0
Ga 12.7145 36.6229 18.05626 0.0 0.0 0.0 0
O 5.46892 38.3281 24.3397 0.0 0.0 0.0 2
Ga 37.7818 30.7756 26.3194 0.0 0.0 0.0 2
Ga 14.4125 0.743975 25.756 0.0 0.0 0.0 1
O 29.1107 19.8796 26.5327 0.0 0.0 0.0 1
Ga 27.2197 25.7429 26.9594 0.0 0.0 0.0 2
Ga 19.9753 14.0626 13.97875 0.0 0.0 0.0 0
O 22.4412 11.3187 12.9855 0.0 0.0 0.0 0
O 27.427 1.44367 23.4655 0.0 0.0 0.0 1
Ga 32.1437 36.7003 34.8101 0.0 0.0 0.0 2
Ga 24.1061 41.2629 19.47402 0.0 0.0 0.0 0
O 34.8568 34.0589 16.20447 0.0 0.0 0.0 0
O 20.6773 26.3108 17.63788 0.0 0.0 0.0 0
Ga 42.3586 10.2473 32.3325 0.0 0.0 0.0 1
O 39.1313 4.09751 31.9461 0.0 0.0 0.0 1
O 49.8048 6.64228 29.5152 0.0 0.0 0.0 1
Ga 1.35261 11.9737 27.0311 0.0 0.0 0.0 1
Ga 13.0305 27.7775 22.693 0.0 0.0 0.0 2
O 5.68123 41.6864 20.8365 0.0 0.0 0.0 2
O 9.09283 24.3008 24.0764 0.0 0.0 0.0 1
O 5.32118 15.8711 34.0445 0.0 0.0 0.0 1
Ga 21.0645 9.41563 32.5685 0.0 0.0 0.0 1
O 17.2684 4.02359 23.268 0.0 0.0 0.0 1
Ga 11.9062 15.9267 23.6045 0.0 0.0 0.0 1
O 47.8431 16.3241 32.7968 0.0 0.0 0.0 1
Ga 47.0095 48.9025 28.1466 0.0 0.0 0.0 2
O 31.5307 46.3073 26.9 0.0 0.0 0.0 2
O 1.0308 41.175 19.0384 0.0 0.0 0.0 0
Ga 35.4178 3.09298 12.10698 0.0 0.0 0.0 0
O 2.30481 30.5686 34.5723 0.0 0.0 0.0 2
O 6.14753 20.9342 17.72737 0.0 0.0 0.0 0
Ga 37.2071 20.8369 11.82385 0.0 0.0 0.0 0
O 30.9476 7.6372 31.4581 0.0 0.0 0.0 1
Ga 13.4977 38.2398 20.9498 0.0 0.0 0.0 2
Ga 21.4204 23.3287 13.34583 0.0 0.0 0.0 0
Ga 13.0707 9.86433 31.9032 0.0 0.0 0.0 1
Ga 34.1763 11.901 16.11541 0.0 0.0 0.0 0
Ga 28.3144 38.1739 22.2206 0.0 0.0 0.0 2
Ga 41.3193 15.4036 14.75167 0.0 0.0 0.0 0
O 9.43805 3.91889 24.3262 0.0 0.0 0.0 1
O 32.0009 39.546 14.52486 0.0 0.0 0.0 0
Ga 27.3164 21.3577 13.89454 0.0 0.0 0.0 0
Ga 33.5552 38.1819 21.6198 0.0 0.0 0.0 2
O 46.6394 36.9819 29.0222 0.0 0.0 0.0 2
Ga 30.45 44.9716 20.3956 0.0 0.0 0.0 2
Ga 37.3745 41.7443 33.718 0.0 0.0 0.0 2
O 1.94832 17.496 21.5392 0.0 0.0 0.0 1
Ga 36.3404 44.1399 34.766 0.0 0.0 0.0 2
O 5.32488 8.07621 18.7939 0.0 0.0 0.0 0
O 34.2132 0.916995 33.7415 0.0 0.0 0.0 1
Ga 35.9251 33.6311 14.6205 0.0 0.0 0.0 0
O 11.0662 1.72248 19.3103 0.0 0.0 0.0 0
Ga 11.3559 49.1759 23.5364 0.0 0.0 0.0 2
Ga 21.5585 15.7424 11.59168 0.0 0.0 0.0 0
O 29.9988 19.311 13.28332 0.0 0.0 0.0 0
O 2.0556 17.8062 18.5677 0.0 0.0 0.0 0
O 11.8958 36.9017 34.3127 0.0 0.0 0.0 2
Ga 49.6818 16.3799 33.392 0.0 0.0 0.0 1
Ga 3.53299 27.9403 18.41126 0.0 0.0 0.0 0
O 0.255985 34.6908 19.50047 0.0 0.0 0.0 0
Ga 27.0621 30.6453 30.9191 0.0 0.0 0.0 2
O 45.8073 0.258102 13.333 0.0 0.0 0.0 0
O 36.3277 22.7041 15.88375 0.0 0.0 0.0 0
Ga 24.6879 8.80162 25.1941 0.0 0.0 0.0 1
O 14.6047 42.0737 22.3218 0.0 0.0 0.0 2
O 7.07039 12.3233 29.383 0.0 0.0 0.0 1
Ga 30.7678 10.2097 18.98804 0.0 0.0 0.0 0
Ga 25.8254 33.1912 23.2112 0.0 0.0 0.0 2
Ga 6.17088 12.6348 30.9932 0.0 0.0 0.0 1
Ga 22.412 47.3142 26.6814 0.0 0.0 0.0 2
O 6.01197 43.1471 24.2762 0.0 0.0 0.0 2
Ga 15.5813 24.655 12.46813 0.0 0.0 0.0 0
O 47.3955 36.6942 11.57709 0.0 0.0 0.0 0
O 24.3148 32.9967 20.3404 0.0 0.0 0.0 2
Ga 11.0915 35.3569 24.1523 0.0 0.0 0.0 2
O 38.0085 36.8221 13.1243 0.0 0.0 0.0 0
O 49.8228 48.2334 17.32605 0.0 0.0 0.0 0
Ga 24.1761 49.4296 30.8915 0.0 0.0 0.0 2
O 35.5591 15.5569 20.0877 0.0 0.0 0.0 1
Ga 10.2486 22.8516 23.3249 0.0 0.0 0.0 1
O 9.36587 33.7395 27.1944 0.0 0.0 0.0 2
O 29.4909 36.9703 23.263 0.0 0.0 0.0 2
O 23.3883 43.6859 17.26553 0.0 0.0 0.0 0
Ga 1.24125 44.9835 24.2315 0.0 0.0 0.0 2
Ga 47.5962 44.7403 15.99506 0.0 0.0 0.0 0
O 14.9271 23.0769 13.69925 0.0 0.0 0.0 0
Ga 11.3321 30.8857 32.243 0.0 0.0 0.0 2
O 12.9505 1.46038 31.5426 0.0 0.0 0.0 1
O 41.3145 21.27 17.25857 0.0 0.0 0.0 0
O 17.8361 17.0988 22.6377 0.0 0.0 0.0 1
O 25.8663 44.8131 15.74089 0.0 0.0 0.0 0
O 30.978 12.0284 19.20211 0.0 0.0 0.0 0
O 15.119 13.0575 29.7323 0.0 0.0 0.0 1
Ga 23.8397 9.99074 16.01123 0.0 0.0 0.0 0
O 12.2192 21.33 19.98324 0.0 0.0 0.0 0
Ga 15.6822 48.36 14.84289 0.0 0.0 0.0 0
O 31.671 1.6548 33.9995 0.0 0.0 0.0 1
Ga 45.3674 2.20533 28.0114 0.0 0.0 0.0 1
O 49.2944 35.2231 10.198964 0.0 0.0 0.0 0
Ga 16.7898 13.45 31.664 0.0 0.0 0.0 1
O 32.9195 26.4881 16.01051 0.0 0.0 0.0 0
O 42.7298 17.9485 32.2577 0.0 0.0 0.0 1
O 18.7361 26.22 23.0704 0.0 0.0 0.0 2
Ga 41.3385 19.1733 26.1642 0.0 0.0 0.0 1
O 7.58647 38.0254 18.47617 0.0 0.0 0.0 0
O 40.7033 20.0651 24.5947 0.0 0.0 0.0 1
Ga 40.0583 25.0371 17.49074 0.0 0.0 0.0 0
O 29.4618 31.5764 21.3704 0.0 0.0 0.0 2
O 47.4101 39.4966 11.89094 0.0 0.0 0.0 0
Ga 46.441 46.9642 23.5722 0.0 0.0 0.0 2
O 30.4298 26.1286 11.22089 0.0 0.0 0.0 0
Ga 24.6121 18.8386 18.52629 0.0 0.0 0.0 0
O 10.3315 31.6024 16.3578 0.0 0.0 0.0 0
Ga 21.1553 41.0042 31.9232 0.0 0.0 0.0 2
O 6.37002 23.5616 28.7106 0.0 0.0 0.0 1
O 16.3718 49.0894 11.93108 0.0 0.0 0.0 0
O 18.9227 1.88019 34.2607 0.0 0.0 0.0 1
O 33.002 3.8451 24.5072 0.0 0.0 0.0 1
Ga 21.4946 18.2792 13.98469 0.0 0.0 0.0 0
O 28.6395 6.92602 12.69856 0.0 0.0 0.0 0
Ga 49.1214 14.1878 25.9756 0.0 0.0 0.0 1
Ga 7.5894 18.1068 15.37854 0.0 0.0 0.0 0
O 43.7425 23.2736 11.97049 0.0 0.0 0.0 0
O 6.23791 46.1061 25.7856 0.0 0.0 0.0 2
Ga 13.055 6.9979 13.49702 0.0 0.0 0.0 0
O 11.2782 39.6514 15.75924 0.0 0.0 0.0 0
O 11.7194 40.1827 12.88196 0.0 0.0 0.0 0
Ga 18.8015 37.2929 13.47261 0.0 0.0 0.0 0
O 28.7151 1.69751 19.16702 0.0 0.0 0.0 0
Ga 45.5943 39.0379 16.50672 0.0 0.0 0.0 0
O 4.77281 36.9637 30.2027 0.0 0.0 0.0 2
Ga 19.721 22.6376 19.68198 0.0 0.0 0.0 0
O 3.24597 30.0849 17.79483 0.0 0.0 0.0 0
O 47.8123 47.1506 28.5429 0.0 0.0 0.0 2
O 44.8465 10.1232 13.51855 0.0 0.0 0.0 0
O 13.8681 13.3949 26.086 0.0 0.0 0.0 1
Ga 36.3844 24.8763 34.0437 0.0 0.0 0.0 1
O 36.3102 24.3263 29.2839 0.0 0.0 0.0 1
O 35.1059 1.37731 23.4448 0.0 0.0 0.0 1
Ga 39.0608 0.886801 27.2861 0.0 0.0 0.0 1
O 48.1598 33.7347 26.109 0.0 0.0 0.0 2
O 44.572 47.9264 23.8752 0.0 0.0 0.0 2
O 4.23042 10.191 26.7783 0.0 0.0 0.0 1
Ga 2.98769 30.8947 10.91688 0.0 0.0 0.0 0
O 45.3297 6.62965 28.8336 0.0 0.0 0.0 1
O 8.07949 15.0946 26.9134 0.0 0.0 0.0 1
Ga 35.8535 47.2715 28.4423 0.0 0.0 0.0 2
O 40.2803 18.5441 32.5431 0.0 0.0 0.0 1
Ga 22.246 22.7522 26.4436 0.0 0.0 0.0 1
O 20.5168 39.909 17.48015 0.0 0.0 0.0 0
Ga 40.9219 35.4025 11.65255 0.0 0.0 0.0 0
Ga 14.3715 41.9546 16.72298 0.0 0.0 0.0 0
O 43.3803 13.3335 29.2451 0.0 0.0 0.0 1
O 43.1918 15.23 15.38738 0.0 0.0 0.0 0
O 28.8876 3.96072 28.0964 0.0 0.0 0.0 1
O 7.63961 47.3636 14.39416 0.0 0.0 0.0 0
Ga 30.0861 36.7269 27.0239 0.0 0.0 0.0 2
O 37.2757 26.0023 22.6112 0.0 0.0 0.0 2
Ga 42.2238 1.58161 11.56166 0.0 0.0 0.0 0
O 8.02117 43.6918 33.1477 0.0 0.0 0.0 2
O 7.69469 33.7538 22.1533 0.0 0.0 0.0 2
Ga 13.9946 14.9362 11.04827 0.0 0.0 0.0 0
Ga 7.85853 6.91888 32.2485 0.0 0.0 0.0 1
Ga 7.13172 3.13688 29.3922 0.0 0.0 0.0 1
O 20.1304 34.5375 23.6948 0.0 0.0 0.0 2
O 21.0828 12.2747 17.83802 0.0 0.0 0.0 0
Ga 26.039 49.0973 18.82708 0.0 0.0 0.0 0
Ga 1.44986 30.2676 18.90224 0.0 0.0 0.0 0
O 25.2231 0.861011 18.55245 0.0 0.0 0.0 0
O 3.58601 39.425 20.961 0.0 0.0 0.0 2
O 19.9016 49.4989 29.1655 0.0 0.0 0.0 2
O 34.0272 2.39387 27.0108 0.0 0.0 0.0 1
Ga 17.3611 15.2112 18.85536 0.0 0.0 0.0 0
O 45.8817 2.62929 17.11055 0.0 0.0 0.0 0
Ga 7.69895 9.60936 24.7803 0.0 0.0 0.0 1
Ga 46.8051 21.2888 33.8018 0.0 0.0 0.0 1
O 44.835 21.1538 23.3494 0.0 0.0 0.0 1
O 32.6197 38.2571 19.91474 0.0 0.0 0.0 0
O 21.8091 30.2669 33.7404 0.0 0.0 0.0 2
Ga 42.4629 21.0541 21.0849 0.0 0.0 0.0 1
Ga 11.925 4.49541 28.4922 0.0 0.0 0.0 1
O 13.791 1.02265 34.3604 0.0 0.0 0.0 1
Ga 39.9022 22.6754 27.0858 0.0 0.0 0.0 1
O 32.3658 37.6719 24.7853 0.0 0.0 0.0 2
O 36.1158 16.8129 10.789293 0.0 0.0 0.0 0
Ga 43.0018 9.78146 13.99627 0.0 0.0 0.0 0
O 22.6307 24.5522 25.9788 0.0 0.0 0.0 1
Ga 22.8322 45.1788 24.4762 0.0 0.0 0.0 2
O 1.47984 10.9369 17.43899 0.0 0.0 0.0 0
Ga 45.7904 3.25366 18.92324 0.0 0.0 0.0 0
O 48.5177 15.9992 30.2174 0.0 0.0 0.0 1
Ga 1.34122 32.9211 16.49576 0.0 0.0 0.0 0
O 47.3994 19.2831 33.7853 0.0 0.0 0.0 1
O 9.58975 45.234 15.46028 0.0 0.0 0.0 0
O 13.6198 12.2406 13.18921 0.0 0.0 0.0 0
Ga 10.694 37.9575 28.3285 0.0 0.0 0.0 2
O 47.2211 6.40724 10.237584 0.0 0.0 0.0 0
Ga 8.30767 15.6315 19.31949 0.0 0.0 0.0 0
O 30.7291 37.1481 10.503559 0.0 0.0 0.0 0
O 35.2298 42.9174 12.21537 0.0 0.0 0.0 0
Ga 23.2547 2.59652 34.8122 0.0 0.0 0.0 1
O 17.0115 5.94837 26.0729 0.0 0.0 0.0 1
Ga 16.9575 19.8243 32.8662 0.0 0.0 0.0 1
O 22.1746 21.7227 28.0433 0.0 0.0 0.0 1
O 21.4738 24.4143 20.0116 0.0 0.0 0.0 1
O 41.1284 15.8353 33.6774 0.0 0.0 0.0 1
Ga 29.3809 33.7995 27.0852 0.0 0.0 0.0 2
O 45.479 39.4597 29.6839 0.0 0.0 0.0 2
O 5.69766 20.0956 24.4574 0.0 0.0 0.0 1
Ga 7.58441 43.7561 23.465 0.0 0.0 0.0 2
Ga 3.39869 11.3227 17.65668 0.0 0.0 0.0 0
O 28.7336 41.56 19.55837 0.0 0.0 0.0 0
O 9.43769 30.1091 14.47579 0.0 0.0 0.0 0
O 34.8006 12.4574 25.8259 0.0 0.0 0.0 1
Ga 1.50562 26.7075 15.61454 0.0 0.0 0.0 0
Ga 34.9797 42.9354 16.56194 0.0 0.0 0.0 0
O 14.7086 28.6527 29.5145 0.0 0.0 0.0 2
O 23.0677 22.3913 13.2586 0.0 0.0 0.0 0
Ga 47.2632 25.574 27.6272 0.0 0.0 0.0 2
O 11.1019 24.9034 31.6273 0.0 0.0 0.0 1
O 15.9491 43.3829 14.26403 0.0 0.0 0.0 0
Ga 46.3056 45.5941 34.4936 0.0 0.0 0.0 2
Ga 46.934 45.5634 28.2684 0.0 0.0 0.0 2
O 5.61852 12.4796 21.9943 0.0 0.0 0.0 1
Ga 34.8754 9.36894 11.398 0.0 0.0 0.0 0
Ga 5.21183 40.181 24.093 0.0 0.0 0.0 2
O 4.8192 8.14356 11.9259 0.0 0.0 0.0 0
Ga 23.5136 13.6802 29.5456 0.0 0.0 0.0 1
Ga 47.6738 16.5481 18.10412 0.0 0.0 0.0 0
O 8.99031 7.22876 30.7554 0.0 0.0 0.0 1
Ga 31.6199 22.4971 25.3516 0.0 0.0 0.0 1
O 42.7338 7.2127 19.7649 0.0 0.0 0.0 0
Ga 24.4777 34.0015 30.7201 0.0 0.0 0.0 2
Ga 9.25408 35.6211 26.4558 0.0 0.0 0.0 2
Ga 4.94593 15.5543 29.804 0.0 0.0 0.0 1
O 39.8901 29.4562 18.46374 0.0 0.0 0.0 0
Ga 46.6915 19.1132 28.4886 0.0 0.0 0.0 1
O 30.4096 42.5045 14.95516 0.0 0.0 0.0 0
O 32.8404 41.8888 26.8967 0.0 0.0 0.0 2
Ga 10.6829 31.3497 18.30361 0.0 0.0 0.0 0
O 11.8237 16.9818 30.1692 0.0 0.0 0.0 1
Ga 37.9653 5.54826 31.2572 0.0 0.0 0.0 1
O 35.6527 44.7659 17.62553 0.0 0.0 0.0 0
O 48.3484 31.5389 18.06239 0.0 0.0 0.0 0
Ga 35.5313 49.6747 12.83161 0.0 0.0 0.0 0
O 0.950153 38.0289 20.5552 0.0 0.0 0.0 2
O 1.90988 38.879 12.83107 0.0 0.0 0.0 0
O 29.5446 45.8942 10.0135488 0.0 0.0 0.0 0
O 38.172 44.5283 16.08597 0.0 0.0 0.0 0
O 36.9024 15.6343 15.2377 0.0 0.0 0.0 0
Ga 24.0331 8.33543 30.9503 0.0 0.0 0.0 1
O 29.8515 22.3245 32.2297 0.0 0.0 0.0 1
O 11.8802 42.3874 22.8957 0.0 0.0 0.0 2
Ga 24.4206 13.5396 22.9789 0.0 0.0 0.0 1
O 39.6168 7.04072 22.7641 0.0 0.0 0.0 1
O 33.1639 39.6156 28.995 0.0 0.0 0.0 2
Ga 30.0459 47.168 24.2143 0.0 0.0 0.0 2
O 26.6292 31.9819 21.8168 0.0 0.0 0.0 2
Ga 20.0582 24.4103 30.8581 0.0 0.0 0.0 1
Ga 49.3382 34.9887 14.67243 0.0 0.0 0.0 0
O 29.5997 4.58076 11.71489 0.0 0.0 0.0 0
Ga 30.1994 18.1853 18.2745 0.0 0.0 0.0 0
Ga 33.9887 0.895285 21.9942 0.0 0.0 0.0 1
O 48.2562 11.3318 28.6021 0.0 0.0 0.0 1
O 30.9017 4.50462 21.4896 0.0 0.0 0.0 1
O 36.4006 4.38865 11.34852 0.0 0.0 0.0 0
Ga 36.0252 13.5574 18.06312 0.0 0.0 0.0 0
O 2.68262 47.6571 18.52718 0.0 0.0 0.0 0
O 48.2337 37.5497 32.1692 0.0 0.0 0.0 2
Ga 42.6801 14.1837 26.927 0.0 0.0 0.0 1
Ga 28.5103 21.5332 26.0916 0.0 0.0 0.0 1
O 6.91004 22.5623 25.2357 0.0 0.0 0.0 1
O 45.4113 46.9206 33.4726 0.0 0.0 0.0 2
Ga 29.908 49.1191 21.6473 0.0 0.0 0.0 2
O 31.1301 14.7341 24.4611 0.0 0.0 0.0 1
O 18.8534 42.7619 25.7721 0.0 0.0 0.0 2
Ga 27.9601 21.5731 32.262 0.0 0.0 0.0 1
O 18.3037 49.5054 20.8305 0.0 0.0 0.0 2
O 30.7628 2.43709 23.3536 0.0 0.0 0.0 1
Ga 47.6496 16.0586 14.25977 0.0 0.0 0.0 0
O 3.56629 5.63278 29.251 0.0 0.0 0.0 1
O 40.042 8.50924 18.09419 0.0 0.0 0.0 0
Ga 49.744 23.9963 16.09681 0.0 0.0 0.0 0
O 22.8127 35.6475 12.10324 0.0 0.0 0.0 0
Ga 15.1282 43.7988 22.1262 0.0 0.0 0.0 2
O 8.28885 9.15777 22.7787 0.0 0.0 0.0 1
Ga 28.8387 45.8658 30.6337 0.0 0.0 0.0 2
Ga 41.7419 26.9002 27.8494 0.0 0.0 0.0 2
O 36.1564 36.7712 15.5169 0.0 0.0 0.0 0
O 2.29029 44.1274 19.3939 0.0 0.0 0.0 0
O 47.7564 43.0287 21.0609 0.0 0.0 0.0 2
O 48.1058 8.43816 28.2313 0.0 0.0 0.0 1
Ga 9.83902 46.3985 23.5396 0.0 0.0 0.0 2
O 2.66907 12.5371 25.7062 0.0 0.0 0.0 1
Ga 45.9954 47.6916 15.71212 0.0 0.0 0.0 0
O 38.4576 49.5493 28.5378 0.0 0.0 0.0 2
Ga 17.9019 5.66505 27.8748 0.0 0.0 0.0 1
O 42.9964 16.5762 29.7155 0.0 0.0 0.0 1
O 26.7456 26.8812 19.71888 0.0 0.0 0.0 0
Ga 6.48153 12.5467 23.691 0.0 0.0 0.0 1
Ga 15.1888 32.5614 10.387053 0.0 0.0 0.0 0
Ga 6.92118 8.7908 21.5561 0.0 0.0 0.0 1
O 25.1564 46.3084 12.50462 0.0 0.0 0.0 0
O 4.2003 9.80394 16.93016 0.0 0.0 0.0 0
Ga 23.5614 43.9685 27.4076 0.0 0.0 0.0 2
O 43.6821 4.67836 18.84766 0.0 0.0 0.0 0
O 2.7237 17.1115 24.5286 0.0 0.0 0.0 1
Ga 25.2812 3.63503 24.3771 0.0 0.0 0.0 1
O 35.2247 42.6172 25.2861 0.0 0.0 0.0 2
O 33.8405 12.1665 11.82455 0.0 0.0 0.0 0
Ga 19.7959 40.4145 19.34197 0.0 0.0 0.0 0
O 48.26 35.0567 21.5777 0.0 0.0 0.0 2
Ga 6.32676 19.1319 11.12379 0.0 0.0 0.0 0
Ga 49.7956 4.75215 17.62939 0.0 0.0 0.0 0
O 6.04926 15.0395 12.06104 0.0 0.0 0.0 0
O 15.3474 30.3072 23.5226 0.0 0.0 0.0 2
Ga 38.3567 0.254575 30.3091 0.0 0.0 0.0 1
O 4.69316 6.32182 24.0046 0.0 0.0 0.0 1
Ga 18.6522 0.0663153 33.4349 0.0 0.0 0.0 1
O 47.7023 5.51913 27.4786 0.0 0.0 0.0 1
Ga 2.34898 23.4619 29.8541 0.0 0.0 0.0 1
O 34.7142 46.1889 15.13529 0.0 0.0 0.0 0
Ga 41.514 11.2445 25.2465 0.0 0.0 0.0 1
O 27.9655 17.5975 23.5001 0.0 0.0 0.0 1
Ga 28.0003 39.394 11.495 0.0 0.0 0.0 0
O 48.9163 29.677 11.0631 0.0 0.0 0.0 0
O 40.8033 14.7748 21.634 0.0 0.0 0.0 1
O 24.1526 24.6842 28.505 0.0 0.0 0.0 1
Ga 31.4535 38.9793 28.7981 0.0 0.0 0.0 2
O 40.5773 42.5964 30.8592 0.0 0.0 0.0 2
O 0.740975 16.6309 12.95498 0.0 0.0 0.0 0
O 38.8613 41.6359 11.16431 0.0 0.0 0.0 0
Ga 1.59911 24.9711 18.55656 0.0 0.0 0.0 0
O 22.0102 49.4379 13.26972 0.0 0.0 0.0 0
O 36.0237 27.6444 10.456869 0.0 0.0 0.0 0
Ga 43.5469 23.7454 20.1982 0.0 0.0 0.0 1
O 10.822 27.1205 19.32556 0.0 0.0 0.0 0
Ga 9.75236 47.5677 20.8071 0.0 0.0 0.0 2
O 34.9735 13.3524 14.98512 0.0 0.0 0.0 0
O 39.254 41.5847 33.6857 0.0 0.0 0.0 2
Ga 0.355502 33.944 30.007 0.0 0.0 0.0 2
O 6.72399 2.48831 31.1381 0.0 0.0 0.0 1
O 20.2045 17.584 27.4616 0.0 0.0 0.0 1
Ga 36.1396 19.6219 23.7534 0.0 0.0 0.0 1
Ga 11.3428 0.539652 31.9433 0.0 0.0 0.0 1
O 37.2726 10.4779 15.35233 0.0 0.0 0.0 0
Ga 13.5169 17.6395 26.0555 0.0 0.0 0.0 1
O 4.63663 14.5715 15.62875 0.0 0.0 0.0 0
O 11.2468 41.1256 20.5658 0.0 0.0 0.0 2
O 46.0433 3.33535 34.7662 0.0 0.0 0.0 1
Ga 36.8496 10.2062 31.3257 0.0 0.0 0.0 1
O 13.3226 26.3098 28.5528 0.0 0.0 0.0 2
O 12.5577 49.3476 15.776 0.0 0.0 0.0 0
Ga 46.016 11.5214 14.4334 0.0 0.0 0.0 0
O 3.31726 39.305 25.8443 0.0 0.0 0.0 2
O 42.3162 7.45256 34.2537 0.0 0.0 0.0 1
O 39.1065 37.369 16.1027 0.0 0.0 0.0 0
O 8.47581 33.3983 32.4261 0.0 0.0 0.0 2
O 25.0223 0.734891 15.96821 0.0 0.0 0.0 0
Ga 22.9779 28.8272 34.1178 0.0 0.0 0.0 2
O 34.1571 25.3008 27.4451 0.0 0.0 0.0 2
Ga 46.5757 29.2902 18.81394 0.0 0.0 0.0 0
O 18.0877 16.9298 25.6279 0.0 0.0 0.0 1
Ga 4.71391 23.924 22.4654 0.0 0.0 0.0 1
O 30.7082 12.7129 11.02349 0.0 0.0 0.0 0
O 8.96489 10.9658 24.6523 0.0 0.0 0.0 1
O 13.3167 25.327 34.2335 0.0 0.0 0.0 2
Ga 30.8561 25.638 20.0218 0.0 0.0 0.0 2
Ga 45.3627 18.9688 10.385972 0.0 0.0 0.0 0
O 2.58046 19.5699 26.3368 0.0 0.0 0.0 1
O 14.9962 36.7156 29.838 0.0 0.0 0.0 2
O 26.4402 42.1076 28.3389 0.0 0.0 0.0 2
Ga 19.2793 44.3608 12.73532 0.0 0.0 0.0 0
Ga 31.5366 48.202 26.8116 0.0 0.0 0.0 2
Ga 47.5779 40.8656 32.2996 0.0 0.0 0.0 2
O 16.2298 28.6786 10.717323 0.0 0.0 0.0 0
Ga 47.2986 0.108512 31.3675 0.0 0.0 0.0 1
O 19.719 6.8189 13.39163 0.0 0.0 0.0 0
Ga 14.2573 33.8398 28.4655 0.0 0.0 0.0 2
O 1.24301 33.5861 25.5807 0.0 0.0 0.0 2
O 2.6536 46.2004 34.5464 0.0 0.0 0.0 2
Ga 2.93197 32.5838 27.818 0.0 0.0 0.0 2
O 40.8623 21.8833 20.304 0.0 0.0 0.0 1
Ga 11.6429 3.35782 20.455 0.0 0.0 0.0 1
O 35.0418 5.66985 24.7653 0.0 0.0 0.0 1
O 21.1482 34.1278 30.8364 0.0 0.0 0.0 2
Ga 31.1252 31.8333 34.1975 0.0 0.0 0.0 2
Ga 43.8424 44.6792 27.3336 0.0 0.0 0.0 2
Ga 10.8453 2.93217 14.14378 0.0 0.0 0.0 0
O 14.2728 44.6548 27.8804 0.0 0.0 0.0 2
O 5.42027 0.0130523 19.18769 0.0 0.0 0.0 0
O 1.13305 12.0588 19.88048 0.0 0.0 0.0 0
Ga 26.7105 47.829 21.5892 0.0 0.0 0.0 2
O 9.94497 24.9039 15.64007 0.0 0.0 0.0 0
Ga 40.5773 27.3849 33.7511 0.0 0.0 0.0 2
O 20.0396 9.73483 29.1527 0.0 0.0 0.0 1
Ga 32.4938 1.43065 27.3346 0.0 0.0 0.0 1
Ga 26.4169 0.938664 26.4447 0.0 0.0 0.0 1
O 5.82237 8.03676 29.8207 0.0 0.0 0.0 1
O 14.2345 48.2505 34.4551 0.0 0.0 0.0 2
Ga 49.1143 6.74529 27.7992 0.0 0.0 0.0 1
O 32.9496 42.2302 10.393568 0.0 0.0 0.0 0
Ga 21.9468 45.2827 34.0668 0.0 0.0 0.0 2
O 43.8947 48.6526 11.77219 0.0 0.0 0.0 0
O 25.7842 46.6829 22.8499 0.0 0.0 0.0 2
Ga 0.984153 20.6904 29.6093 0.0 0.0 0.0 1
O 11.3251 6.82622 14.58302 0.0 0.0 0.0 0
Ga 31.9224 27.2501 32.4608 0.0 0.0 0.0 2
O 8.55973 25.4779 11.99406 0.0 0.0 0.0 0
O 20.3176 47.1759 20.3007 0.0 0.0 0.0 2
Ga 8.04492 5.67516 21.0316 0.0 0.0 0.0 1
O 21.0131 7.5717 27.4737 0.0 0.0 0.0 1
O 27.0837 44.4293 24.1556 0.0 0.0 0.0 2
O 46.7827 45.8767 24.9847 0.0 0.0 0.0 2
Ga 44.7331 24.3594 13.29767 0.0 0.0 0.0 0
O 40.5305 20.2508 27.382 0.0 0.0 0.0 1
Ga 24.4957 26.6232 17.46564 0.0 0.0 0.0 0
Ga 9.14587 34.3033 17.40714 0.0 0.0 0.0 0
Ga 45.5181 43.023 32.9897 0.0 0.0 0.0 2
O 4.29069 5.20067 13.27009 0.0 0.0 0.0 0
O 30.1193 47.552 16.72914 0.0 0.0 0.0 0
Ga 27.6318 20.1477 19.42232 0.0 0.0 0.0 0
O 49.1268 40.0102 14.11511 0.0 0.0 0.0 0
Ga 34.8008 5.28694 32.0641 0.0 0.0 0.0 1
O 21.5426 35.2527 34.3346 0.0 0.0 0.0 2
O 22.7305 45.9943 18.25133 0.0 0.0 0.0 0
Ga 12.1608 21.7071 31.5494 0.0 0.0 0.0 1
O 34.2156 25.9873 30.434 0.0 0.0 0.0 2
Ga 44.6242 23.9551 34.2908 0.0 0.0 0.0 1
Ga 12.7838 1.67299 22.9277 0.0 0.0 0.0 1
O 42.1559 36.1986 16.5353 0.0 0.0 0.0 0
O 23.6499 26.0801 19.01069 0.0 0.0 0.0 0
Ga 46.7768 34.3779 33.538 0.0 0.0 0.0 2
Ga 2.59544 45.1805 13.39622 0.0 0.0 0.0 0
O 33.1793 43.3698 17.1518 0.0 0.0 0.0 0
O 5.83679 3.68556 33.8415 0.0 0.0 0.0 1
O 24.2555 3.32246 12.98682 0.0 0.0 0.0 0
Ga 47.5508 5.68918 31.1942 0.0 0.0 0.0 1
Ga 13.235 47.7427 26.2452 0.0 0.0 0.0 2
O 18.5467 29.142 26.4058 0.0 0.0 0.0 2
Ga 44.161 22.9023 23.1274 0.0 0.0 0.0 1
O 30.4278 3.52287 17.1468 0.0 0.0 0.0 0
Ga 15.1577 6.34632 20.5398 0.0 0.0 0.0 1
O 7.35479 2.06782 16.21419 0.0 0.0 0.0 0
Ga 4.17231 19.6554 31.0321 0.0 0.0 0.0 1
Ga 8.61643 20.2638 33.5978 0.0 0.0 0.0 1
O 48.9747 21.0159 26.695 0.0 0.0 0.0 1
O 8.78194 8.0906 25.1174 0.0 0.0 0.0 1
Ga 9.67887 2.39621 23.2722 0.0 0.0 0.0 1
Ga 45.0109 27.4669 28.0414 0.0 0.0 0.0 2
O 19.7796 45.3303 18.13545 0.0 0.0 0.0 0
O 30.1944 12.9471 28.3207 0.0 0.0 0.0 1
O 8.48319 10.1489 30.5979 0.0 0.0 0.0 1
Ga 42.5199 4.53561 17.44132 0.0 0.0 0.0 0
O 26.4464 22.595 17.24407 0.0 0.0 0.0 0
O 22.303 34.6036 22.0623 0.0 0.0 0.0 2
Ga 39.9301 4.52315 20.1344 0.0 0.0 0.0 1
O 13.9804 3.80953 31.4954 0.0 0.0 0.0 1
O 22.9621 45.3796 26.331 0.0 0.0 0.0 2
O 9.71787 12.7774 29.8088 0.0 0.0 0.0 1
O 14.5939 30.1165 16.19691 0.0 0.0 0.0 0
Ga 3.84736 41.339 21.3776 0.0 0.0 0.0 2
O 25.5376 29.7131 31.4262 0.0 0.0 0.0 2
O 46.0999 25.4225 32.0037 0.0 0.0 0.0 2
O 23.6923 37.1854 34.8214 0.0 0.0 0.0 2
Ga 21.3183 0.716977 25.7088 0.0 0.0 0.0 1
O 13.3487 45.8032 19.416 0.0 0.0 0.0 0
O 27.4111 48.9255 12.4798 0.0 0.0 0.0 0
Ga 8.07556 19.1645 21.5953 0.0 0.0 0.0 1
O 30.4643 5.72467 14.53585 0.0 0.0 0.0 0
O 6.04435 13.1799 19.31676 0.0 0.0 0.0 0
O 20.3214 7.99117 31.2368 0.0 0.0 0.0 1
O 15.5503 46.7731 24.1625 0.0 0.0 0.0 2
Ga 6.9208 18.1569 31.5541 0.0 0.0 0.0 1
O 41.7616 39.1658 29.4104 0.0 0.0 0.0 2
Ga 20.529 35.4263 22.0014 0.0 0.0 0.0 2
Ga 47.4274 8.83714 32.3323 0.0 0.0 0.0 1
O 49.2887 10.804 33.8967 0.0 0.0 0.0 1
O 46.6125 18.9925 26.6705 0.0 0.0 0.0 1
Ga 33.4798 26.4763 28.8554 0.0 0.0 0.0 2
O 14.0612 27.8457 24.3305 0.0 0.0 0.0 2
Ga 0.95877 47.303 21.0463 0.0 0.0 0.0 2
Ga 26.1188 17.5505 23.5011 0.0 0.0 0.0 1
O 9.63522 21.7183 24.6522 0.0 0.0 0.0 1
Ga 29.9881 15.0139 17.38842 0.0 0.0 0.0 0
O 38.2352 47.7617 21.782 0.0 0.0 0.0 2
Ga 9.15401 48.3425 25.8405 0.0 0.0 0.0 2
O 30.4559 13.0206 22.0396 0.0 0.0 0.0 1
Ga 1.06804 7.22289 19.13498 0.0 0.0 0.0 0
O 17.754 15.8735 11.70501 0.0 0.0 0.0 0
O 23.5064 15.5172 20.1827 0.0 0.0 0.0 1
Ga 10.6286 12.4381 16.64823 0.0 0.0 0.0 0
O 39.8619 36.7835 25.0754 0.0 0.0 0.0 2
Ga 20.6048 45.0671 28.362 0.0 0.0 0.0 2
O 12.9182 35.4325 11.64207 0.0 0.0 0.0 0
O 45.962 22.9953 13.70847 0.0 0.0 0.0 0
Ga 2.44843 3.86792 32.3769 0.0 0.0 0.0 1
O 19.2222 23.8502 32.4138 0.0 0.0 0.0 1
Ga 35.2467 34.1755 18.19952 0.0 0.0 0.0 0
Ga 12.7535 23.5851 25.2892 0.0 0.0 0.0 1
Ga 1.12333 48.6761 10.374328 0.0 0.0 0.0 0
O 28.1424 15.906 17.75562 0.0 0.0 0.0 0
O 21.3947 35.5848 27.3329 0.0 0.0 0.0 2
O 33.3623 4.00738 17.11977 0.0 0.0 0.0 0
Ga 34.9273 35.2501 11.30336 0.0 0.0 0.0 0
O 27.7078 41.7537 22.4116 0.0 0.0 0.0 2
O 15.9163 2.17886 21.6439 0.0 0.0 0.0 1
Ga 47.0203 29.279 10.838202 0.0 0.0 0.0 0
O 48.0518 24.1001 11.08034 0.0 0.0 0.0 0
Ga 7.5223 31.1982 19.87482 0.0 0.0 0.0 0
O 5.2283 10.1477 34.7687 0.0 0.0 0.0 1
O 19.8751 19.251 14.43949 0.0 0.0 0.0 0
O 6.36766 42.5872 34.7669 0.0 0.0 0.0 2
Ga 28.7739 19.5931 11.82348 0.0 0.0 0.0 0
O 34.8345 10.0147 16.06091 0.0 0.0 0.0 0
Ga 14.4711 1.79534 20.2544 0.0 0.0 0.0 1
O 46.7842 11.191 34.9771 0.0 0.0 0.0 1
Ga 49.4737 31.0721 28.9661 0.0 0.0 0.0 2
O 45.2828 48.7777 28.9493 0.0 0.0 0.0 2
O 27.9991 37.9258 10.257909 0.0 0.0 0.0 0
Ga 16.0381 2.98509 17.78124 0.0 0.0 0.0 0
Ga 14.4663 8.2346 23.3409 0.0 0.0 0.0 1
O 27.3467 23.0993 33.2617 0.0 0.0 0.0 1
O 7.99773 17.3613 30.2571 0.0 0.0 0.0 1
Ga 46.8197 29.5044 29.834 0.0 0.0 0.0 2
Ga 44.915 25.3706 30.5167 0.0 0.0 0.0 2
Ga 38.0172 44.8275 28.1226 0.0 0.0 0.0 2
Ga 5.47295 34.6543 26.6622 0.0 0.0 0.0 2
Ga 7.70502 0.372931 15.64826 0.0 0.0 0.0 0
O 33.7895 45.2296 12.38086 0.0 0.0 0.0 0
Ga 13.7478 2.34345 30.1178 0.0 0.0 0.0 1
O 34.7503 25.7119 18.08278 0.0 0.0 0.0 0
O 14.9226 38.92 16.41217 0.0 0.0 0.0 0
O 18.17 36.6468 15.07868 0.0 0.0 0.0 0
Ga 9.00281 13.945 13.71241 0.0 0.0 0.0 0
O 26.167 32.2591 30.2274 0.0 0.0 0.0 2
O 46.7783 9.97007 15.09421 0.0 0.0 0.0 0
O 19.5136 23.4304 17.95989 0.0 0.0 0.0 0
Ga 2.70156 48.4224 13.11018 0.0 0.0 0.0 0
O 36.4763 7.31395 23.0146 0.0 0.0 0.0 1
O 29.6268 41.3556 32.1765 0.0 0.0 0.0 2
O 47.8354 21.7149 12.56728 0.0 0.0 0.0 0
O 5.42693 16.196 31.4467 0.0 0.0 0.0 1
O 22.6453 47.9514 21.958 0.0 0.0 0.0 2
Ga 11.1501 42.7472 33.7665 0.0 0.0 0.0 2
O 43.6371 28.1573 12.75552 0.0 0.0 0.0 0
O 2.63373 34.2879 16.91573 0.0 0.0 0.0 0
O 9.02059 18.4789 14.13578 0.0 0.0 0.0 0
Ga 37.84 18.7109 18.37299 0.0 0.0 0.0 0
O 21.3744 32.7821 33.1864 0.0 0.0 0.0 2
Ga 1.59336 0.8034 20.5459 0.0 0.0 0.0 1
O 5.45081 34.8256 17.91545 0.0 0.0 0.0 0
Ga 4.79705 9.4421 30.7449 0.0 0.0 0.0 1
O 0.0409785 18.0905 34.5141 0.0 0.0 0.0 1
O 46.4051 49.7627 10.694435 0.0 0.0 0.0 0
O 21.1256 29.292 24.6484 0.0 0.0 0.0 2
O 40.8982 15.1055 16.65775 0.0 0.0 0.0 0
Ga 39.0747 19.6388 28.6545 0.0 0.0 0.0 1
O 30.6948 18.5938 33.0434 0.0 0.0 0.0 1
O 1.71191 23.1672 19.26223 0.0 0.0 0.0 0
O 44.7676 18.0159 19.42854 0.0 0.0 0.0 0
Ga 2.92901 13.3144 32.9048 0.0 0.0 0.0 1
O 3.22322 49.6499 24.1854 0.0 0.0 0.0 2
Ga 13.4986 21.3918 16.04558 0.0 0.0 0.0 0
Ga 42.2648 1.96391 15.02228 0.0 0.0 0.0 0
O 48.3693 38.0593 21.7216 0.0 0.0 0.0 2
Ga 25.3699 5.32828 30.9348 0.0 0.0 0.0 1
O 3.11945 12.0609 15.56931 0.0 0.0 0.0 0
O 38.5734 24.7755 16.31914 0.0 0.0 0.0 0
Ga 1.52346 22.019 17.77681 0.0 0.0 0.0 0
O 12.7166 3.57624 23.7997 0.0 0.0 0.0 1
O 13.454 39.5245 27.61 0.0 0.0 0.0 2
Ga 34.2218 11.7021 32.9247 0.0 0.0 0.0 1
O 18.4284 41.6911 18.3332 0.0 0.0 0.0 0
O 48.1774 36.5347 26.4127 0.0 0.0 0.0 2
Ga 0.734196 6.70561 22.4488 0.0 0.0 0.0 1
O 36.1756 29.8163 26.1684 0.0 0.0 0.0 2
Ga 10.8112 21.8872 11.69733 0.0 0.0 0.0 0
O 36.2402 9.02756 32.7348 0.0 0.0 0.0 1
O 12.225 11.5316 31.2237 0.0 0.0 0.0 1
O 3.44714 42.9664 25.9953 0.0 0.0 0.0 2
O 38.2477 8.73316 27.704 0.0 0.0 0.0 1
O 12.0194 17.2735 22.2606 0.0 0.0 0.0 1
Ga 24.3746 16.8357 21.0958 0.0 0.0 0.0 1
Ga 4.60585 24.7557 19.2462 0.0 0.0 0.0 0
O 44.8341 33.1559 13.58222 0.0 0.0 0.0 0
O 40.9225 29.1889 15.98455 0.0 0.0 0.0 0
Ga 46.0933 39.1588 24.5502 0.0 0.0 0.0 2
Ga 5.78555 25.0856 27.6983 0.0 0.0 0.0 2
O 19.6201 42.4139 31.2378 0.0 0.0 0.0 2
O 5.346 38.6356 27.8738 0.0 0.0 0.0 2
O 0.467419 47.9272 34.1292 0.0 0.0 0.0 2
O 29.1002 10.155 17.99935 0.0 0.0 0.0 0
Ga 22.7641 15.3704 14.75745 0.0 0.0 0.0 0
O 19.206 41.4385 28.5668 0.0 0.0 0.0 2
Ga 36.4223 17.8054 29.0093 0.0 0.0 0.0 1
O 11.7589 3.61016 12.60197 0.0 0.0 0.0 0
O 38.2746 12.5601 10.73063 0.0 0.0 0.0 0
Ga 36.8255 23.5558 19.89711 0.0 0.0 0.0 0
O 48.174 28.5815 18.12634 0.0 0.0 0.0 0
Ga 22.7048 32.4983 21.6009 0.0 0.0 0.0 2
O 26.6268 15.9885 30.9644 0.0 0.0 0.0 1
Ga 1.71266 32.0272 13.45338 0.0 0.0 0.0 0
O 13.0283 42.8473 12.59048 0.0 0.0 0.0 0
O 42.7967 19.4544 22.2037 0.0 0.0 0.0 1
O 12.8434 34.6434 14.08012 0.0 0.0 0.0 0
O 33.8174 28.7114 22.3636 0.0 0.0 0.0 2
Ga 27.591 12.7044 31.9438 0.0 0.0 0.0 1
O 45.6332 18.9611 23.8203 0.0 0.0 0.0 1
Ga 29.352 14.3455 29.5421 0.0 0.0 0.0 1
O 39.9492 47.5495 32.7889 0.0 0.0 0.0 2
O 15.1177 0.239728 14.50553 0.0 0.0 0.0 0
O 31.592 13.847 17.08931 0.0 0.0 0.0 0
Ga 44.6444 11.8315 21.8791 0.0 0.0 0.0 1
O 2.08462 35.1242 11.21493 0.0 0.0 0.0 0
Ga 5.41423 3.7503 21.3731 0.0 0.0 0.0 1
O 33.5782 22.5031 25.9714 0.0 0.0 0.0 1
Ga 9.46637 37.2775 18.4004 0.0 0.0 0.0 0
O 48.5856 12.2673 25.8509 0.0 0.0 0.0 1
O 0.979034 28.3119 12.04452 0.0 0.0 0.0 0
Ga 35.2458 24.2432 30.8801 0.0 0.0 0.0 1
O 14.8541 41.7059 26.8165 0.0 0.0 0.0 2
O 34.3799 36.1495 25.3798 0.0 0.0 0.0 2
Ga 45.4388 26.8864 33.0791 0.0 0.0 0.0 2
O 26.6416 24.7127 28.6941 0.0 0.0 0.0 1
O 39.6337 34.015 12.13182 0.0 0.0 0.0 0
O 20.9262 22.9073 30.2662 0.0 0.0 0.0 1
Ga 15.4685 29.7959 21.6363 0.0 0.0 0.0 2
O 49.6013 33.2626 15.57509 0.0 0.0 0.0 0
Ga 4.74074 39.9256 15.26086 0.0 0.0 0.0 0
O 29.2774 15.0852 10.775089 0.0 0.0 0.0 0
O 41.1724 31.7174 10.306917 0.0 0.0 0.0 0
Ga 23.0848 43.6531 30.8349 0.0 0.0 0.0 2
O 47.0667 22.9298 18.87311 0.0 0.0 0.0 0
Ga 20.7686 6.4644 26.0356 0.0 0.0 0.0 1
O 16.4049 25.9553 21.2461 0.0 0.0 0.0 2
O 43.1109 29.5522 17.70475 0.0 0.0 0.0 0
O 13.8201 0.526526 29.2123 0.0 0.0 0.0 1
Ga 9.34684 16.9515 33.2293 0.0 0.0 0.0 1
O 26.0849 46.9884 25.6709 0.0 0.0 0.0 2
O 0.688886 0.995062 17.67777 0.0 0.0 0.0 0
O 29.5767 31.5673 10.0846613 0.0 0.0 0.0 0
O 13.8187 23.3319 21.9166 0.0 0.0 0.0 1
Ga 3.02129 3.06667 14.14587 0.0 0.0 0.0 0
O 10.0946 8.49418 12.53328 0.0 0.0 0.0 0
Ga 36.0628 38.0903 10.110035 0.0 0.0 0.0 0
Ga 39.7129 8.59799 23.8657 0.0 0.0 0.0 1
O 11.6196 1.10942 14.09799 0.0 0.0 0.0 0
O 5.45089 47.2779 19.17678 0.0 0.0 0.0 0
Ga 13.2899 33.3491 18.35698 0.0 0.0 0.0 0
O 17.468 21.5277 11.07544 0.0 0.0 0.0 0
Ga 4.59486 32.6234 30.6748 0.0 0.0 0.0 2
O 8.42208 12.1751 19.43107 0.0 0.0 0.0 0
Ga 12.0163 40.7882 27.3745 0.0 0.0 0.0 2
O 38.3591 14.3226 21.0056 0.0 0.0 0.0 1
O 17.5633 0.245754 31.687 0.0 0.0 0.0 1
O 39.3293 14.6694 26.6191 0.0 0.0 0.0 1
O 11.0662 0.311458 28.2615 0.0 0.0 0.0 1
Ga 12.2422 44.5473 13.19171 0.0 0.0 0.0 0
Ga 44.8901 10.5418 27.868 0.0 0.0 0.0 1
O 8.79505 6.39231 33.7742 0.0 0.0 0.0 1
O 19.3974 26.6567 33.3652 0.0 0.0 0.0 2
Ga 34.4552 36.6111 16.22869 0.0 0.0 0.0 0
Ga 12.7512 23.2006 13.57999 0.0 0.0 0.0 0
O 27.5992 45.3058 12.35839 0.0 0.0 0.0 0
Ga 42.0821 12.5078 19.0811 0.0 0.0 0.0 0
O 18.9726 33.7539 29.0376 0.0 0.0 0.0 2
Ga 14.9158 11.6557 14.39946 0.0 0.0 0.0 0
O 13.6044 18.3242 20.1448 0.0 0.0 0.0 1
O 39.1827 39.8838 30.3429 0.0 0.0 0.0 2
Ga 33.0183 35.3023 13.90437 0.0 0.0 0.0 0
Ga 32.8884 12.3865 25.6871 0.0 0.0 0.0 1
O 37.4001 43.5199 23.5178 0.0 0.0 0.0 2
O 32.6004 32.509 28.699 0.0 0.0 0.0 2
Ga 5.9842 29.3321 11.4955 0.0 0.0 0.0 0
O 2.92439 43.697 14.48062 0.0 0.0 0.0 0
Ga 32.1397 37.041 11.71862 0.0 0.0 0.0 0
Ga 10.2883 33.1786 11.3972 0.0 0.0 0.0 0
O 12.0253 4.05161 18.77254 0.0 0.0 0.0 0
O 40.2761 14.3098 12.99988 0.0 0.0 0.0 0
O 35.252 46.6435 30.2012 0.0 0.0 0.0 2
Ga 32.9487 2.4688 30.3989 0.0 0.0 0.0 1
O 17.6109 47.2303 19.12342 0.0 0.0 0.0 0
O 41.8664 25.7283 24.2782 0.0 0.0 0.0 2
Ga 39.1413 26.747 29.9405 0.0 0.0 0.0 2
O 11.8711 11.2185 26.0183 0.0 0.0 0.0 1
O 10.6029 12.7472 22.4879 0.0 0.0 0.0 1
Ga 45.3492 4.34388 11.87188 0.0 0.0 0.0 0
O 11.6115 7.89888 19.63712 0.0 0.0 0.0 0
Ga 26.8859 6.0789 12.97149 0.0 0.0 0.0 0
O 4.87938 30.8032 10.90057 0.0 0.0 0.0 0
Ga 40.2511 17.9725 13.82306 0.0 0.0 0.0 0
Ga 48.7173 30.6199 20.8424 0.0 0.0 0.0 2
Ga 16.291 47.9755 25.6046 0.0 0.0 0.0 2
Ga 16.2276 45.2388 10.692332 0.0 0.0 0.0 0
O 10.8667 44.0347 25.1712 0.0 0.0 0.0 2
O 40.4473 29.4761 24.2969 0.0 0.0 0.0 2
Ga 23.7692 9.52238 33.8021 0.0 0.0 0.0 1
Ga 20.6089 5.82914 31.445 0.0 0.0 0.0 1
O 25.0841 0.32325 11.32981 0.0 0.0 0.0 0
O 10.7172 46.6087 30.0393 0.0 0.0 0.0 2
Ga 38.1583 33.7554 16.5039 0.0 0.0 0.0 0
O 10.896 7.62409 22.0881 0.0 0.0 0.0 1
O 24.382 3.62634 33.1842 0.0 0.0 0.0 1
O 16.5421 41.548 24.4624 0.0 0.0 0.0 2
Ga 0.974289 42.8167 11.8374 0.0 0.0 0.0 0
Ga 48.0934 6.20416 11.97431 0.0 0.0 0.0 0
O 18.7401 26.1195 12.90862 0.0 0.0 0.0 0
Ga 15.6948 22.8021 26.3757 0.0 0.0 0.0 1
Ga 6.21077 16.5029 21.8137 0.0 0.0 0.0 1
O 43.6601 32.1381 20.3885 0.0 0.0 0.0 2
O 10.3799 19.0248 29.6884 0.0 0.0 0.0 1
Ga 42.8289 18.4251 19.20783 0.0 0.0 0.0 0
O 17.64 10.5322 34.1097 0.0 0.0 0.0 1
O 14.2513 15.7304 28.9259 0.0 0.0 0.0 1
Ga 48.9423 31.6715 33.3466 0.0 0.0 0.0 2
Ga 26.3996 43.92 31.6672 0.0 0.0 0.0 2
O 1.70712 7.53394 33.9685 0.0 0.0 0.0 1
Ga 14.9163 42.0132 13.38597 0.0 0.0 0.0 0
Ga 40.1508 32.245 11.8444 0.0 0.0 0.0 0
O 26.8682 46.9563 14.75229 0.0 0.0 0.0 0
Ga 43.0909 3.63639 20.4445 0.0 0.0 0.0 1
O 4.59164 39.9193 12.03118 0.0 0.0 0.0 0
Ga 41.8492 42.2237 17.03045 0.0 0.0 0.0 0
O 10.0337 1.12597 11.74191 0.0 0.0 0.0 0
Ga 19.1686 46.8381 25.7026 0.0 0.0 0.0 2
O 26.8155 5.75506 29.6713 0.0 0.0 0.0 1
Ga 29.5582 29.928 32.4112 0.0 0.0 0.0 2
O 16.4603 44.2597 23.279 0.0 0.0 0.0 2
Ga 21.8388 30.628 19.63344 0.0 0.0 0.0 0
Ga 38.6853 31.6945 32.2021 0.0 0.0 0.0 2
O 35.3963 17.0052 30.2319 0.0 0.0 0.0 1
O 23.9198 34.0066 32.4444 0.0 0.0 0.0 2
Ga 22.0113 18.162 18.14126 0.0 0.0 0.0 0
O 39.1877 35.5894 31.0004 0.0 0.0 0.0 2
O 38.0806 5.10662 24.4689 0.0 0.0 0.0 1
Ga 41.131 31.3923 24.3368 0.0 0.0 0.0 2
O 6.39941 15.4763 28.6448 0.0 0.0 0.0 1
Ga 24.1235 6.77463 14.85875 0.0 0.0 0.0 0
O 17.2726 22.6049 24.8776 0.0 0.0 0.0 1
Ga 23.9996 3.23949 14.81707 0.0 0.0 0.0 0
Ga 10.6953 49.7644 15.19233 0.0 0.0 0.0 0
Ga 14.9224 9.11217 11.69614 0.0 0.0 0.0 0
Ga 26.35 38.3655 17.49915 0.0 0.0 0.0 0
O 47.9767 39.6075 24.4045 0.0 0.0 0.0 2
O 39.7243 42.1524 21.0473 0.0 0.0 0.0 2
O 1.27211 35.8283 21.7221 0.0 0.0 0.0 2
O 8.55474 28.5445 16.40575 0.0 0.0 0.0 0
Ga 30.2711 6.05488 12.67132 0.0 0.0 0.0 0
Ga 40.9631 1.73411 29.7116 0.0 0.0 0.0 1
O 21.6742 29.0164 16.4804 0.0 0.0 0.0 0
Ga 16.0334 37.5349 22.3869 0.0 0.0 0.0 2
O 44.6771 46.4945 30.5006 0.0 0.0 0.0 2
O 44.7736 14.9897 12.67493 0.0 0.0 0.0 0
Ga 5.58019 11.087 27.9284 0.0 0.0 0.0 1
Ga 43.0753 44.3875 34.0096 0.0 0.0 0.0 2
Ga 49.5898 40.1778 27.0659 0.0 0.0 0.0 2
O 21.311 43.9589 24.5178 0.0 0.0 0.0 2
Ga 25.6354 7.96101 20.9814 0.0 0.0 0.0 1
O 10.2145 6.36267 17.39004 0.0 0.0 0.0 0
Ga 17.2955 4.82352 32.1538 0.0 0.0 0.0 1
O 3.28183 32.7178 10.301675 0.0 0.0 0.0 0
Ga 16.2599 9.94839 31.113 0.0 0.0 0.0 1
O 15.8698 38.153 14.39654 0.0 0.0 0.0 0
Ga 23.2767 47.7365 17.74293 0.0 0.0 0.0 0
O 2.27306 18.1294 10.892073 0.0 0.0 0.0 0
Ga 27.1183 16.921 15.84668 0.0 0.0 0.0 0
Ga 0.463945 29.5314 23.3959 0.0 0.0 0.0 2
O 24.0703 47.8403 27.639 0.0 0.0 0.0 2
O 26.6695 4.6927 23.6733 0.0 0.0 0.0 1
Ga 21.4938 44.9322 17.39354 0.0 0.0 0.0 0
O 36.3646 40.3295 33.1106 0.0 0.0 0.0 2
Ga 6.54463 42.656 15.29427 0.0 0.0 0.0 0
O 48.0566 42.3886 12.49559 0.0 0.0 0.0 0
O 9.03668 15.7568 12.81916 0.0 0.0 0.0 0
Ga 8.924 19.1674 12.50125 0.0 0.0 0.0 0
Ga 19.0912 27.6036 13.98858 0.0 0.0 0.0 0
O 36.0029 9.74509 29.6955 0.0 0.0 0.0 1
O 18.3043 4.14595 12.95872 0.0 0.0 0.0 0
Ga 39.5727 37.5844 14.10656 0.0 0.0 0.0 0
O 11.0042 17.7806 32.7641 0.0 0.0 0.0 1
O 7.92129 3.25861 26.8309 0.0 0.0 0.0 1
Ga 3.90744 4.47567 24.3281 0.0 0.0 0.0 1
Ga 3.31039 35.8629 30.7365 0.0 0.0 0.0 2
O 41.1581 34.4298 20.791 0.0 0.0 0.0 2
Ga 28.2829 1.36505 21.0042 0.0 0.0 0.0 1
O 45.2774 47.5623 19.74342 0.0 0.0 0.0 0
O 29.1164 14.623 31.7208 0.0 0.0 0.0 1
Ga 38.4508 47.7773 23.7219 0.0 0.0 0.0 2
O 44.3629 39.3061 23.8163 0.0 0.0 0.0 2
Ga 10.8941 5.16428 11.91354 0.0 0.0 0.0 0
O 32.8655 7.53958 25.6545 0.0 0.0 0.0 1
O 20.7238 21.1045 32.3701 0.0 0.0 0.0 1
Ga 8.59424 37.2499 12.64801 0.0 0.0 0.0 0
O 30.1538 9.64115 33.0291 0.0 0.0 0.0 1
Ga 20.722 28.1717 17.97537 0.0 0.0 0.0 0
O 43.4712 42.8777 17.75084 0.0 0.0 0.0 0
O 47.1778 25.846 18.56504 0.0 0.0 0.0 0
O 19.0756 17.3016 16.03236 0.0 0.0 0.0 0
O 4.00072 45.3088 12.13783 0.0 0.0 0.0 0
O 27.9798 37.3541 17.64484 0.0 0.0 0.0 0
O 9.83099 41.7519 32.9595 0.0 0.0 0.0 2
Ga 42.5507 40.9017 28.8261 0.0 0.0 0.0 2
O 35.9174 8.22796 10.322386 0.0 0.0 0.0 0
O 20.9876 12.7608 33.4105 0.0 0.0 0.0 1
O 5.08953 1.8466 29.0677 0.0 0.0 0.0 1
Ga 14.765 8.4238 34.6828 0.0 0.0 0.0 1
O 11.1633 39.1973 32.4865 0.0 0.0 0.0 2
O 3.13517 13.1848 17.91686 0.0 0.0 0.0 0
O 11.2441 3.81425 15.78067 0.0 0.0 0.0 0
Ga 8.53163 27.6062 34.6637 0.0 0.0 0.0 2
Ga 10.2149 40.6237 31.5736 0.0 0.0 0.0 2
O 33.9934 49.4023 31.1723 0.0 0.0 0.0 2
Ga 36.174 26.5488 18.88003 0.0 0.0 0.0 0
O 46.6466 27.7178 11.68038 0.0 0.0 0.0 0
Ga 29.1733 33.2525 22.2976 0.0 0.0 0.0 2
O 6.25803 4.44805 14.99242 0.0 0.0 0.0 0
Ga 44.1634 29.7346 13.49892 0.0 0.0 0.0 0
O 2.85844 23.8428 14.03426 0.0 0.0 0.0 0
O 39.873 45.0544 32.934 0.0 0.0 0.0 2
O 1.30945 48.7674 26.0309 0.0 0.0 0.0 2
O 10.228 13.086 32.5302 0.0 0.0 0.0 1
Ga 37.6499 34.3135 26.8752 0.0 0.0 0.0 2
Ga 9.72157 31.4986 25.222 0.0 0.0 0.0 2
O 2.48797 12.2789 31.1834 0.0 0.0 0.0 1
Ga 24.7214 26.6527 34.9678 0.0 0.0 0.0 2
O 13.8319 14.9981 17.84214 0.0 0.0 0.0 0
O 4.09648 32.6857 19.19219 0.0 0.0 0.0 0
O 16.4771 20.7069 17.96695 0.0 0.0 0.0 0
O 36.797 29.5393 13.95747 0.0 0.0 0.0 0
O 39.1049 9.81818 22.4034 0.0 0.0 0.0 1
O 17.3995 33.5942 23.3465 0.0 0.0 0.0 2
Ga 41.2824 30.5418 27.6658 0.0 0.0 0.0 2
O 28.6293 18.1001 10.703904 0.0 0.0 0.0 0
Ga 35.7172 24.9668 22.8359 0.0 0.0 0.0 1
O 18.8427 31.6899 31.9964 0.0 0.0 0.0 2
O 10.928 46.2921 20.2984 0.0 0.0 0.0 2
Ga 11.2385 33.3886 27.1892 0.0 0.0 0.0 2
O 19.6406 4.34593 34.738 0.0 0.0 0.0 1
Ga 47.008 40.3217 29.0998 0.0 0.0 0.0 2
O 32.2199 32.4972 11.6498 0.0 0.0 0.0 0
Ga 41.7762 44.2975 14.63178 0.0 0.0 0.0 0
O 17.0986 28.4966 21.7776 0.0 0.0 0.0 2
Ga 9.20491 6.06534 29.192 0.0 0.0 0.0 1
O 3.2336 9.0876 24.0769 0.0 0.0 0.0 1
Ga 15.3046 20.149 24.8072 0.0 0.0 0.0 1
Ga 29.4511 39.9933 26.3861 0.0 0.0 0.0 2
O 15.369 20.2329 31.8251 0.0 0.0 0.0 1
Ga 12.5055 49.2538 28.8545 0.0 0.0 0.0 2
O 30.7654 23.7042 15.99118 0.0 0.0 0.0 0
O 10.4727 38.5664 30.0503 0.0 0.0 0.0 2
Ga 2.61006 35.0425 25.7602 0.0 0.0 0.0 2
O 17.4594 33.9109 13.58877 0.0 0.0 0.0 0
O 40.1803 12.9382 34.4959 0.0 0.0 0.0 1
Ga 6.69272 44.7788 33.8274 0.0 0.0 0.0 2
Ga 26.8576 27.8723 13.72802 0.0 0.0 0.0 0
O 46.8131 41.8831 33.7411 0.0 0.0 0.0 2
O 1.52256 27.3896 29.1785 0.0 0.0 0.0 2
O 17.9992 12.5707 16.52883 0.0 0.0 0.0 0
Ga 18.4962 42.7667 21.1619 0.0 0.0 0.0 2
O 26.0136 17.6292 17.28432 0.0 0.0 0.0 0
